! Created Tue Mar 25 01:58:03 2025
# hz S ma R 50
! 2 Port Network Data from SP1.SP block
! freq  magS11  angS11  magS21  angS21  magS12  angS12  magS22  angS22  
!     
1.4e+10       0.152468541         91.6161699         4.24686175        -82.3936975        0.133695346        -82.9936975        0.132747931         135.318787
1.4005e+10       0.152618692         90.9632818         4.24671361        -82.6499154        0.133751006        -83.2134154        0.132143455         134.746699
1.401e+10       0.152777174         90.3105585         4.24655825        -82.9062096        0.133806456        -83.4332096        0.131542969         134.171173
1.4015e+10       0.152943994         89.6580471         4.24639564        -83.1625798        0.133861696        -83.6530798        0.130946553         133.592185
1.402e+10       0.153119161         89.0057948         4.24622576        -83.4190259        0.133916725        -83.8730259        0.130354286         133.009709
1.4025e+10       0.153302681         88.3538484         4.24604858        -83.6755476        0.133971543        -84.0930476        0.129766247         132.423721
1.403e+10       0.153494558         87.7022546         4.24586409        -83.9321446        0.134026147        -84.3131446        0.129182517         131.834197
1.4035e+10       0.153694795         87.0510598         4.24567225        -84.1888168        0.134080537        -84.5333168         0.12860318         131.241113
1.404e+10       0.153903394         86.4003098         4.24547304        -84.4455639        0.134134712        -84.7535639        0.128028316         130.644448
1.4045e+10       0.154120355         85.7500506         4.24526644        -84.7023856         0.13418867        -84.9738856        0.127458012         130.044178
1.405e+10       0.154345676         85.1003273         4.24505243        -84.9592817        0.134242412        -85.1942817        0.126892351         129.440284
1.4055e+10       0.154579355         84.4511849         4.24483097         -85.216252        0.134295934         -85.414752        0.126331419         128.832744
1.406e+10       0.154821387         83.8026679         4.24460206        -85.4732963        0.134349238        -85.6352963        0.125775302         128.221539
1.4065e+10       0.155071767         83.1548204         4.24436566        -85.7304142        0.134402321        -85.8559142        0.125224089          127.60665
1.407e+10       0.155330487         82.5076859         4.24412175        -85.9876056        0.134455182        -86.0766056        0.124677867          126.98806
1.4075e+10        0.15559754         81.8613076         4.24387031        -86.2448701        0.134507821        -86.2973701        0.124136726         126.365752
1.408e+10       0.155872914         81.2157281         4.24361132        -86.5022077        0.134560237        -86.5182077        0.123600755         125.739709
1.4085e+10         0.1561566         80.5709893         4.24334475        -86.7596179        0.134612427        -86.7391179        0.123070046         125.109919
1.409e+10       0.156448583         79.9271327         4.24307057        -87.0171005        0.134664392        -86.9601005         0.12254469         124.476366
1.4095e+10       0.156748851         79.2841992         4.24278878        -87.2746554        0.134716131        -87.1811554        0.122024779         123.839039
1.41e+10       0.157057387          78.642229         4.24249933        -87.5322822        0.134767641        -87.4022822        0.121510407         123.197927
1.4105e+10       0.157374175         78.0012617         4.24220222        -87.7899806        0.134818923        -87.6234806        0.121001667         122.553021
1.411e+10       0.157699198         77.3613363         4.24189742        -88.0477505        0.134869975        -87.8447505        0.120498654          121.90431
1.4115e+10       0.158032436         76.7224911         4.24158491        -88.3055915        0.134920796        -88.0660915        0.120001462          121.25179
1.412e+10       0.158373868         76.0847637         4.24126466        -88.5635034        0.134971385        -88.2875034        0.119510189         120.595455
1.4125e+10       0.158723473         75.4481911         4.24093665         -88.821486        0.135021741         -88.508986        0.119024929           119.9353
1.413e+10       0.159081227         74.8128093         4.24060086        -89.0795389        0.135071863        -88.7305389        0.118545779         119.271323
1.4135e+10       0.159447108          74.178654         4.24025726        -89.3376619         0.13512175        -88.9521619        0.118072838         118.603525
1.414e+10       0.159821089         73.5457597         4.23990585        -89.5958547        0.135171401        -89.1738547        0.117606202         117.931905
1.4145e+10       0.160203145         72.9141605         4.23954659        -89.8541171        0.135220815        -89.3956171         0.11714597         117.256467
1.415e+10       0.160593247         72.2838896         4.23917946        -90.1124487        0.135269991        -89.6174487         0.11669224         116.577217
1.4155e+10       0.160991367         71.6549793         4.23880444        -90.3708493        0.135318928        -89.8393493        0.116245111         115.894159
1.416e+10       0.161397476         71.0274614         4.23842151        -90.6293187        0.135367625        -90.0613187        0.115804683         115.207304
1.4165e+10       0.161811543         70.4013666         4.23803065        -90.8878565        0.135416081        -90.2833565        0.115371054         114.516662
1.417e+10       0.162233536         69.7767249         4.23763183        -91.1464625        0.135464294        -90.5054625        0.114944324         113.822246
1.4175e+10       0.162663423         69.1535657         4.23722504        -91.4051364        0.135512265        -90.7276364        0.114524592          113.12407
1.418e+10        0.16310117         68.5319173         4.23681026        -91.6638778        0.135559991        -90.9498778        0.114111959         112.422152
1.4185e+10       0.163546742         67.9118073         4.23638746        -91.9226866        0.135607472        -91.1721866        0.113706523         111.716512
1.419e+10       0.164000104         67.2932624         4.23595662        -92.1815624        0.135654706        -91.3945624        0.113308384          111.00717
1.4195e+10        0.16446122         66.6763087         4.23551773         -92.440505        0.135701694         -91.617005        0.112917641         110.294151
1.42e+10       0.164930053         66.0609712         4.23507075         -92.699514        0.135748434         -91.839514        0.112534393         109.577481
1.4205e+10       0.165406564         65.4472743         4.23461568        -92.9585891        0.135794924        -92.0620891        0.112158739          108.85719
1.421e+10       0.165890714         64.8352413         4.23415249        -93.2177301        0.135841164        -92.2847301        0.111790777         108.133308
1.4215e+10       0.166382466          64.224895         4.23368116        -93.4769367        0.135887153        -92.5074367        0.111430606          107.40587
1.422e+10       0.166881777         63.6162571         4.23320167        -93.7362085         0.13593289        -92.7302085        0.111078321         106.674912
1.4225e+10       0.167388607         63.0093487           4.232714        -93.9955454        0.135978373        -92.9530454        0.110734021         105.940474
1.423e+10       0.167902914         62.4041899         4.23221813        -94.2549469        0.136023603        -93.1759469        0.110397801         105.202596
1.4235e+10       0.168424656         61.8008001         4.23171404        -94.5144127        0.136068577        -93.3989127        0.110069757         104.461324
1.424e+10       0.168953791         61.1991978         4.23120171        -94.7739426        0.136113295        -93.6219426        0.109749982         103.716704
1.4245e+10       0.169490274         60.5994008         4.23068113        -95.0335363        0.136157756        -93.8450363         0.10943857         102.968787
1.425e+10       0.170034061          60.001426         4.23015227        -95.2931934        0.136201959        -94.0681934        0.109135614         102.217625
1.4255e+10       0.170585107         59.4052895         4.22961511        -95.5529137        0.136245903        -94.2914137        0.108841205         101.463273
1.426e+10       0.171143369         58.8110068         4.22906964        -95.8126968        0.136289587        -94.5146968        0.108555433         100.705789
1.4265e+10       0.171708798         58.2185924         4.22851584        -96.0725424        0.136333011        -94.7380424        0.108278387         99.9452349
1.427e+10        0.17228135         57.6280601         4.22795368        -96.3324502        0.136376172        -94.9614502        0.108010154         99.1816735
1.4275e+10       0.172860978          57.039423         4.22738315          -96.59242         0.13641907          -95.18492         0.10775082         98.4151713
1.428e+10       0.173447635         56.4526934         4.22680423        -96.8524512        0.136461704        -95.4084512        0.107500469         97.6457973
1.4285e+10       0.174041273         55.8678829          4.2262169        -97.1125438        0.136504074        -95.6320438        0.107259185         96.8736234
1.429e+10       0.174641844         55.2850023         4.22562114        -97.3726972        0.136546178        -95.8556972        0.107027047         96.0987241
1.4295e+10       0.175249301         54.7040616         4.22501694        -97.6329113        0.136588015        -96.0794113        0.106804136         95.3211763
1.43e+10       0.175863594         54.1250704         4.22440428        -97.8931856        0.136629585        -96.3031856        0.106590528           94.54106
1.4305e+10       0.176484674         53.5480372         4.22378313        -98.1535199        0.136670886        -96.5270199        0.106386298         93.7584574
1.431e+10       0.177112494         52.9729702         4.22315349        -98.4139139        0.136711917        -96.7509139         0.10619152         92.9734535
1.4315e+10       0.177747002         52.3998766         4.22251534        -98.6743671        0.136752678        -96.9748671        0.106006264         92.1861355
1.432e+10       0.178388151         51.8287631         4.22186865        -98.9348793        0.136793168        -97.1988793        0.105830599         91.3965932
1.4325e+10       0.179035889         51.2596357         4.22121341        -99.1954502        0.136833385        -97.4229502        0.105664591         90.6049188
1.433e+10       0.179690166         50.6924999          4.2205496        -99.4560793        0.136873329        -97.6470793        0.105508303         89.8112067
1.4335e+10       0.180350933         50.1273603         4.21987721        -99.7167665        0.136912999        -97.8712665        0.105361798         89.0155534
1.434e+10       0.181018139          49.564221         4.21919622        -99.9775112        0.136952394        -98.0955112        0.105225133         88.2180578
1.4345e+10       0.181691733         49.0030858         4.21850661        -100.238313        0.136991513        -98.3198133        0.105098364         87.4188205
1.435e+10       0.182371665         48.4439573         4.21780837        -100.499172        0.137030355        -98.5441723        0.104981545         86.6179442
1.4355e+10       0.183057885         47.8868382         4.21710148        -100.760088        0.137068919        -98.7685879        0.104874726         85.8155336
1.436e+10        0.18375034         47.3317301         4.21638592         -101.02106        0.137107205        -98.9930597        0.104777955         85.0116948
1.4365e+10        0.18444898         46.7786343         4.21566168        -101.282088        0.137145211        -99.2175875        0.104691275         84.2065358
1.437e+10       0.185153755         46.2275515         4.21492875        -101.543171        0.137182936        -99.4421709        0.104614729         83.4001659
1.4375e+10       0.185864612          45.678482         4.21418709        -101.804309         0.13722038        -99.6668095        0.104548354         82.5926959
1.438e+10       0.186581502         45.1314255         4.21343671        -102.065503        0.137257542         -99.891503        0.104492188         81.7842379
1.4385e+10       0.187304373         44.5863811         4.21267759        -102.326751        0.137294421        -100.116251         0.10444626         80.9749051
1.439e+10       0.188033174         44.0433476         4.21190971        -102.588053        0.137331015        -100.341053        0.104410601         80.1648116
1.4395e+10       0.188767854         43.5023233         4.21113305        -102.849409        0.137367325        -100.565909        0.104385237         79.3540726
1.44e+10       0.189508361         42.9633059          4.2103476        -103.110819        0.137403349        -100.790819        0.104370189         78.5428038
1.4405e+10       0.190254646         42.4262927         4.20955335        -103.372281        0.137439087        -101.015781        0.104365477         77.7311217
1.441e+10       0.191006657         41.8912808         4.20875028        -103.633796        0.137474536        -101.240796        0.104371117         76.9191432
1.4415e+10       0.191764343         41.3582666         4.20793838        -103.895364        0.137509698        -101.465864        0.104387122         76.1069854
1.442e+10       0.192527654         40.8272463         4.20711763        -104.156984         0.13754457        -101.690984          0.1044135         75.2947658
1.4425e+10       0.193296539         40.2982156         4.20628802        -104.418655        0.137579153        -101.916155        0.104450258         74.4826017
1.443e+10       0.194070947         39.7711698         4.20544953        -104.680378        0.137613444        -102.141378        0.104497398         73.6706106
1.4435e+10       0.194850829         39.2461038         4.20460216        -104.942151        0.137647444        -102.366651         0.10455492         72.8589094
1.444e+10       0.195636133         38.7230124         4.20374589        -105.203975        0.137681151        -102.591975        0.104622818         72.0476149
1.4445e+10        0.19642681         38.2018898          4.2028807         -105.46585        0.137714565         -102.81735        0.104701086         71.2368432
1.445e+10        0.19722281           37.68273         4.20200658        -105.727774        0.137747685        -103.042774        0.104789713         70.4267098
1.4455e+10       0.198024083         37.1655267         4.20112352        -105.989747        0.137780509        -103.268247        0.104888685         69.6173294
1.446e+10        0.19883058         36.6502731         4.20023151         -106.25177        0.137813038         -103.49377        0.104997983         68.8088157
1.4465e+10        0.19964225         36.1369623         4.19933053        -106.513841         0.13784527        -103.719341        0.105117589         68.0012814
1.447e+10       0.200459044          35.625587         4.19842057        -106.775961        0.137877205        -103.944961        0.105247477         67.1948381
1.4475e+10       0.201280915         35.1161399         4.19750162        -107.038128        0.137908841        -104.170628         0.10538762         66.3895958
1.448e+10       0.202107812         34.6086131         4.19657367        -107.300343        0.137940179        -104.396343        0.105537989         65.5856633
1.4485e+10       0.202939687         34.1029986          4.1956367        -107.562605        0.137971216        -104.622105        0.105698551         64.7831477
1.449e+10       0.203776491         33.5992881         4.19469071        -107.824914        0.138001953        -104.847914        0.105869268         63.9821545
1.4495e+10       0.204618177         33.0974733         4.19373567         -108.08727        0.138032389         -105.07377        0.106050103         63.1827874
1.45e+10       0.205464696         32.5975453         4.19277159        -108.349671        0.138062522        -105.299671        0.106241012         62.3851483
1.4505e+10          0.206316         32.0994953         4.19179845        -108.612118        0.138092353        -105.525618        0.106441951         61.5893369
1.451e+10       0.207172042         31.6033142         4.19081624        -108.874611        0.138121879        -105.751611        0.106652873          60.795451
1.4515e+10       0.208032775         31.1089928         4.18982494        -109.137148        0.138151102        -105.977648        0.106873726         60.0035863
1.452e+10       0.208898152         30.6165214         4.18882455        -109.399729        0.138180019        -106.203729        0.107104458         59.2138361
1.4525e+10       0.209768124         30.1258906         4.18781506        -109.662355         0.13820863        -106.429855        0.107345013         58.4262915
1.453e+10       0.210642647         29.6370905         4.18679646        -109.925024        0.138236934        -106.656024        0.107595333          57.641041
1.4535e+10       0.211521674         29.1501112         4.18576873        -110.187737        0.138264931        -106.882237        0.107855358         56.8581711
1.454e+10       0.212405159         28.6649426         4.18473187        -110.450492         0.13829262        -107.108492        0.108125025         56.0777653
1.4545e+10       0.213293055         28.1815744         4.18368587         -110.71329            0.13832         -107.33479        0.108404268         55.2999048
1.455e+10       0.214185318         27.6999963         4.18263071         -110.97613         0.13834707         -107.56113        0.108693022         54.5246682
1.4555e+10       0.215081902         27.2201979          4.1815664        -111.239012         0.13837383        -107.787512        0.108991215         53.7521315
1.456e+10       0.215982762         26.7421685         4.18049291        -111.501935        0.138400279        -108.013935        0.109298778         52.9823679
1.4565e+10       0.216887853         26.2658975         4.17941024        -111.764899        0.138426416        -108.240399        0.109615637         52.2154479
1.457e+10       0.217797132         25.7913741         4.17831839        -112.027903        0.138452241        -108.466903        0.109941717         51.4514394
1.4575e+10       0.218710553         25.3185873         4.17721734        -112.290947        0.138477752        -108.693447        0.110276942         50.6904075
1.458e+10       0.219628073         24.8475264         4.17610709        -112.554031         0.13850295        -108.920031        0.110621233         49.9324145
1.4585e+10       0.220549648         24.3781801         4.17498762        -112.817154        0.138527833        -109.146654        0.110974511         49.1775201
1.459e+10       0.221475236         23.9105375         4.17385894        -113.080316        0.138552401        -109.373316        0.111336694         48.4257811
1.4595e+10       0.222404792         23.4445873         4.17272103        -113.343516        0.138576653        -109.600016          0.1117077         47.6772515
1.46e+10       0.223338274         22.9803183         4.17157388        -113.606755        0.138600589        -109.826755        0.112087444         46.9319828
1.4605e+10        0.22427564         22.5177193         4.17041749        -113.870031        0.138624207        -110.053531        0.112475842         46.1900236
1.461e+10       0.225216848         22.0567788         4.16925185        -114.133344        0.138647508        -110.280344        0.112872807         45.4514199
1.4615e+10       0.226161855         21.5974857         4.16807695        -114.396694         0.13867049        -110.507194        0.113278253         44.7162148
1.462e+10        0.22711062         21.1398284          4.1668928         -114.66008        0.138693153         -110.73408        0.113692091          43.984449
1.4625e+10       0.228063101         20.6837955         4.16569937        -114.923502        0.138715497        -110.961002        0.114114231         43.2561604
1.463e+10       0.229019258         20.2293757         4.16449667        -115.186959         0.13873752        -111.187959        0.114544585         42.5313845
1.4635e+10        0.22997905         19.7765573         4.16328469        -115.450452        0.138759222        -111.414952        0.114983062          41.810154
1.464e+10       0.230942436         19.3253289         4.16206342        -115.713979        0.138780602        -111.641979         0.11542957         41.0924993
1.4645e+10       0.231909377         18.8756791         4.16083286        -115.977541         0.13880166        -111.869041        0.115884018         40.3784482
1.465e+10       0.232879831         18.4275962           4.159593        -116.241136        0.138822396        -112.096136        0.116346314         39.6680262
1.4655e+10        0.23385376         17.9810689         4.15834384        -116.504764        0.138842808        -112.323264        0.116816365         38.9612561
1.466e+10       0.234831124         17.5360855         4.15708537        -116.768426        0.138862896        -112.550426        0.117294077         38.2581589
1.4665e+10       0.235811885         17.0926346         4.15581759         -117.03212        0.138882659         -112.77762        0.117779359         37.5587528
1.467e+10       0.236796002         16.6507047          4.1545405        -117.295846        0.138902098        -113.004846        0.118272117         36.8630541
1.4675e+10       0.237783438         16.2102843         4.15325408        -117.559604         0.13892121        -113.232104        0.118772256         36.1710768
1.468e+10       0.238774155         15.7713619         4.15195834        -117.823393        0.138939996        -113.459393        0.119279684         35.4828329
1.4685e+10       0.239768115         15.3339261         4.15065326        -118.087212        0.138958456        -113.686712        0.119794306         34.7983323
1.469e+10       0.240765279         14.8979655         4.14933886        -118.351063        0.138976588        -113.914063         0.12031603         34.1175827
1.4695e+10       0.241765611         14.4634687         4.14801512        -118.614942        0.138994392        -114.141442        0.120844761         33.4405902
1.47e+10       0.242769074         14.0304243         4.14668204        -118.878852        0.139011868        -114.368852        0.121380406         32.7673589
1.4705e+10        0.24377563         13.5988209         4.14533962         -119.14279        0.139029015         -114.59629        0.121922872         32.0978908
1.471e+10       0.244785243         13.1686472         4.14398786        -119.406757        0.139045832        -114.823757        0.122472065         31.4321866
1.4715e+10       0.245797876         12.7398921         4.14262675        -119.670752         0.13906232        -115.051252        0.123027894         30.7702451
1.472e+10       0.246813494         12.3125442         4.14125628        -119.934775        0.139078476        -115.278775        0.123590266         30.1120633
1.4725e+10       0.247832061         11.8865924         4.13987647        -120.198825        0.139094302        -115.506325        0.124159089         29.4576368
1.473e+10       0.248853542         11.4620256         4.13848731        -120.462902        0.139109796        -115.733902         0.12473427         28.8069598
1.4735e+10         0.2498779         11.0388325         4.13708878        -120.727006        0.139124958        -115.961506         0.12531572         28.1600247
1.474e+10       0.250905101         10.6170023         4.13568091        -120.991135        0.139139788        -116.189135        0.125903347         27.5168228
1.4745e+10       0.251935111         10.1965238         4.13426367         -121.25529        0.139154285         -116.41679        0.126497061          26.877344
1.475e+10       0.252967894         9.77738618         4.13283708        -121.519469        0.139168448        -116.644469        0.127096772         26.2415767
1.4755e+10       0.254003417          9.3595785         4.13140112        -121.783674        0.139182278        -116.872174        0.127702392         25.6095084
1.476e+10       0.255041646         8.94308993         4.12995581        -122.047902        0.139195773        -117.099902        0.128313831         24.9811252
1.4765e+10       0.256082546         8.52790968         4.12850114        -122.312154        0.139208933        -117.327654        0.128931003         24.3564121
1.477e+10       0.257126085         8.11402704          4.1270371         -122.57643        0.139221758         -117.55543        0.129553819         23.7353532
1.4775e+10       0.258172229         7.70143134         4.12556371        -122.840728        0.139234248        -117.783228        0.130182194         23.1179314
1.478e+10       0.259220946         7.29011198         4.12408096        -123.105048        0.139246401        -118.011048        0.130816041         22.5041287
1.4785e+10       0.260272202         6.88005841         4.12258884        -123.369391        0.139258218        -118.238891        0.131455276         21.8939262
1.479e+10       0.261325965         6.47126017         4.12108737        -123.633754        0.139269698        -118.466754        0.132099813         21.2873041
1.4795e+10       0.262382202         6.06370684         4.11957654        -123.898139        0.139280841        -118.694639         0.13274957         20.6842419
1.48e+10       0.263440882         5.65738807         4.11805636        -124.162544        0.139291646        -118.922544        0.133404463         20.0847183
1.4805e+10       0.264501974          5.2522936         4.11652682         -124.42697        0.139302113         -119.15047         0.13406441         19.4887112
1.481e+10       0.265565445         4.84841319         4.11498793        -124.691414        0.139312241        -119.378414        0.134729331         18.8961978
1.4815e+10       0.266631263         4.44573672         4.11343968        -124.955878        0.139322031        -119.606378        0.135399144         18.3071547
1.482e+10       0.267699399         4.04425411         4.11188209        -125.220361        0.139331482        -119.834361        0.136073769         17.7215582
1.4825e+10       0.268769821         3.64395535         4.11031515        -125.484862        0.139340593        -120.062362        0.136753129         17.1393835
1.483e+10       0.269842499         3.24483051         4.10873887         -125.74938        0.139349364         -120.29038        0.137437144         16.5606057
1.4835e+10       0.270917401         2.84686974         4.10715325        -126.013916        0.139357795        -120.518416        0.138125738         15.9851994
1.484e+10       0.271994499         2.45006324         4.10555829        -126.278469        0.139365885        -120.746469        0.138818833         15.4131386
1.4845e+10       0.273073761          2.0544013         4.10395399        -126.543038        0.139373634        -120.974538        0.139516355         14.8443969
1.485e+10       0.274155159         1.65987427         4.10234036        -126.807623        0.139381042        -121.202623        0.140218229         14.2789477
1.4855e+10       0.275238662         1.26647257         4.10071741        -127.072223        0.139388109        -121.430723        0.140924381         13.7167639
1.486e+10       0.276324242        0.874186727         4.09908513        -127.336839        0.139394834        -121.658839        0.141634738         13.1578183
1.4865e+10       0.277411869        0.483007301         4.09744354        -127.601468        0.139401217        -121.886968        0.142349227         12.6020832
1.487e+10       0.278501514       0.0929249498         4.09579263        -127.866112        0.139407257        -122.115112        0.143067778         12.0495307
1.4875e+10       0.279593148       -0.296069602         4.09413241         -128.13077        0.139412954         -122.34327        0.143790319         11.5001329
1.488e+10       0.280686744       -0.683985553         4.09246288         -128.39544        0.139418309         -122.57144        0.144516781         10.9538615
1.4885e+10       0.281782273        -1.07083203         4.09078406        -128.660123         0.13942332        -122.799623        0.145247096          10.410688
1.489e+10       0.282879707        -1.45661807         4.08909594        -128.924818        0.139427988        -123.027818        0.145981195         9.87058396
1.4895e+10       0.283979017        -1.84135266         4.08739853        -129.189525        0.139432313        -123.256025        0.146719012         9.33352071
1.49e+10       0.285080177        -2.22504469         4.08569184        -129.454243        0.139436293        -123.484243        0.147460479         8.79946949
1.4905e+10       0.286183158        -2.60770299         4.08397587        -129.718972        0.139439929        -123.712472        0.148205532         8.26840151
1.491e+10       0.287287933        -2.98933629         4.08225063        -129.983711         0.13944322        -123.940711        0.148954106          7.7402879
1.4915e+10       0.288394476        -3.36995329         4.08051612         -130.24846        0.139446167         -124.16896        0.149706136         7.21509978
1.492e+10       0.289502759        -3.74956256         4.07877236        -130.513218        0.139448769        -124.397218        0.150461561         6.69280824
1.4925e+10       0.290612756        -4.12817263         4.07701935        -130.777985        0.139451026        -124.625485        0.151220318         6.17338442
1.493e+10        0.29172444        -4.50579195          4.0752571        -131.042761        0.139452938        -124.853761        0.151982345         5.65679944
1.4935e+10       0.292837784        -4.88242888         4.07348561        -131.307544        0.139454504        -125.082044        0.152747582         5.14302449
1.494e+10       0.293952763        -5.25809173         4.07170489        -131.572335        0.139455725        -125.310335        0.153515969         4.63203081
1.4945e+10        0.29506935        -5.63278871         4.06991495        -131.837132          0.1394566        -125.538632        0.154287447          4.1237897
1.495e+10        0.29618752        -6.00652797          4.0681158        -132.101936        0.139457129        -125.766936        0.155061958         3.61827257
1.4955e+10       0.297307247        -6.37931758         4.06630744        -132.366746        0.139457311        -125.995246        0.155839444         3.11545091
1.496e+10       0.298428506        -6.75116555         4.06448989        -132.631562        0.139457148        -126.223562        0.156619849         2.61529633
1.4965e+10       0.299551271        -7.12207978         4.06266315        -132.896383        0.139456638        -126.451883        0.157403117         2.11778054
1.497e+10       0.300675517        -7.49206814         4.06082724        -133.161208        0.139455782        -126.680208        0.158189193         1.62287542
1.4975e+10       0.301801218         -7.8611384         4.05898216        -133.426037        0.139454579        -126.908537        0.158978022         1.13055296
1.498e+10       0.302928352        -8.22929827         4.05712792         -133.69087        0.139453029         -127.13687         0.15976955        0.640785323
1.4985e+10       0.304056892        -8.59655537         4.05526452        -133.955705        0.139451132        -127.365205        0.160563724        0.153544821
1.499e+10       0.305186814        -8.96291727         4.05339199        -134.220544        0.139448888        -127.593544        0.161360493       -0.331196057
1.4995e+10       0.306318094        -9.32839144         4.05151034        -134.485385        0.139446298        -127.821885        0.162159804       -0.813464647
1.5e+10       0.307450708        -9.69298532         4.04961956        -134.750227         0.13944336        -128.050227        0.162961606         -1.2932881
1.5005e+10       0.308535824        -10.0252877         4.04795631        -135.010558        0.139444252        -128.278558        0.163837405        -1.75614045
1.501e+10       0.309621888        -10.3569603         4.04628449        -135.270905        0.139444825        -128.506905        0.164715336        -2.21660808
1.5015e+10       0.310708882        -10.6880081         4.04460412        -135.531266         0.13944508        -128.735266        0.165595355        -2.67472167
1.502e+10       0.311796791        -11.0184361         4.04291519        -135.791641        0.139445016        -128.963641        0.166477417        -3.13051151
1.5025e+10       0.312885598        -11.3482494         4.04121771         -136.05203        0.139444633         -129.19203        0.167361476        -3.58400753
1.503e+10       0.313975288        -11.6774528         4.03951168        -136.312432         0.13944393        -129.420432         0.16824749        -4.03523928
1.5035e+10       0.315065844        -12.0060513         4.03779712        -136.572847        0.139442909        -129.648847        0.169135416        -4.48423591
1.504e+10       0.316157251        -12.3340497         4.03607403        -136.833275        0.139441567        -129.877275        0.170025211        -4.93102624
1.5045e+10       0.317249494        -12.6614528         4.03434241        -137.093714        0.139439906        -130.105714        0.170916833        -5.37563868
1.505e+10       0.318342556        -12.9882653         4.03260228        -137.354165        0.139437924        -130.334165        0.171810242        -5.81810127
1.5055e+10       0.319436422        -13.3144918         4.03085363        -137.614628        0.139435623        -130.562628        0.172705396         -6.2584417
1.506e+10       0.320531076        -13.6401371         4.02909647        -137.875101        0.139433002        -130.791101        0.173602257        -6.69668729
1.5065e+10       0.321626503        -13.9652056         4.02733082        -138.135584         0.13943006        -131.019584        0.174500783        -7.13286497
1.507e+10       0.322722687         -14.289702         4.02555668        -138.396077        0.139426797        -131.248077        0.175400938        -7.56700133
1.5075e+10       0.323819614        -14.6136306         4.02377406         -138.65658        0.139423214         -131.47658        0.176302682        -7.99912258
1.508e+10       0.324917268         -14.936996         4.02198296        -138.917092         0.13941931        -131.705092        0.177205978         -8.4292546
1.5085e+10       0.326015634        -15.2598025          4.0201834        -139.177612        0.139415086        -131.933612        0.178110789        -8.85742289
1.509e+10       0.327114696        -15.5820545         4.01837538        -139.438141         0.13941054        -132.162141        0.179017079        -9.28365259
1.5095e+10        0.32821444        -15.9037562          4.0165589        -139.698677        0.139405673        -132.390677         0.17992481        -9.70796852
1.51e+10       0.329314851        -16.2249119         4.01473399        -139.959221        0.139400486        -132.619221        0.180833948        -10.1303951
1.5105e+10       0.330415914        -16.5455259         4.01290064        -140.219771        0.139394977        -132.847771        0.181744457        -10.5509565
1.511e+10       0.331517614        -16.8656022         4.01105887        -140.480328        0.139389147        -133.076328        0.182656304        -10.9696765
1.5115e+10       0.332619936         -17.185145         4.00920868        -140.740891        0.139382995        -133.304891        0.183569453        -11.3865785
1.512e+10       0.333722866        -17.5041583         4.00735009         -141.00146        0.139376522         -133.53346        0.184483872        -11.8016856
1.5125e+10       0.334826389        -17.8226463         4.00548311        -141.262033        0.139369728        -133.762033        0.185399527        -12.2150205
1.513e+10        0.33593049        -18.1406128         4.00360773        -141.522612        0.139362612        -133.990612        0.186316385        -12.6266058
1.5135e+10       0.337035155        -18.4580618         4.00172398        -141.783194        0.139355174        -134.219194        0.187234415        -13.0364636
1.514e+10        0.33814037        -18.7749972         3.99983187        -142.043781        0.139347415        -134.447781        0.188153584        -13.4446155
1.5145e+10        0.33924612        -19.0914229          3.9979314        -142.304371        0.139339334        -134.676371        0.189073861        -13.8510833
1.515e+10       0.340352391        -19.4073426         3.99602258        -142.564964        0.139330932        -134.904964        0.189995216        -14.2558879
1.5155e+10       0.341459168        -19.7227602         3.99410543         -142.82556        0.139322208         -135.13356        0.190917617        -14.6590504
1.516e+10       0.342566438        -20.0376794         3.99217995        -143.086158        0.139313163        -135.362158        0.191841035        -15.0605912
1.5165e+10       0.343674186        -20.3521039         3.99024617        -143.346757        0.139303796        -135.590757         0.19276544        -15.4605306
1.517e+10       0.344782399        -20.6660373         3.98830408        -143.607358        0.139294107        -135.819358        0.193690803        -15.8588886
1.5175e+10       0.345891062        -20.9794833          3.9863537         -143.86796        0.139284097         -136.04796        0.194617094        -16.2556849
1.518e+10       0.347000161        -21.2924453         3.98439504        -144.128562        0.139273765        -136.276562        0.195544285        -16.6509388
1.5185e+10       0.348109683        -21.6049271         3.98242812        -144.389164        0.139263111        -136.505164        0.196472349        -17.0446694
1.519e+10       0.349219613         -21.916932         3.98045294        -144.649766        0.139252136        -136.733766        0.197401256        -17.4368956
1.5195e+10       0.350329939        -22.2284635         3.97846952        -144.910366         0.13924084        -136.962366         0.19833098        -17.8276359
1.52e+10       0.351440645        -22.5395251         3.97647787        -145.170966        0.139229222        -137.190966        0.199261494        -18.2169085
1.5205e+10        0.35255172          -22.85012         3.97447801        -145.431563        0.139217283        -137.419563        0.200192771        -18.6047316
1.521e+10       0.353663148        -23.1602518         3.97246994        -145.692159        0.139205022        -137.648159        0.201124785        -18.9911227
1.5215e+10       0.354774917        -23.4699237         3.97045368        -145.952752        0.139192441        -137.876752        0.202057509        -19.3760993
1.522e+10       0.355887013         -23.779139         3.96842924        -146.213342        0.139179538        -138.105342        0.202990917        -19.7596787
1.5225e+10       0.356999422        -24.0879008         3.96639664        -146.473928        0.139166314        -138.333928        0.203924985        -20.1418778
1.523e+10       0.358112132        -24.3962125         3.96435588        -146.734511        0.139152769        -138.562511        0.204859688        -20.5227133
1.5235e+10       0.359225129        -24.7040772         3.96230699        -146.995089        0.139138904        -138.791089        0.205794999        -20.9022017
1.524e+10       0.360338399        -25.0114981         3.96024997        -147.255662        0.139124717        -139.019662        0.206730896         -21.280359
1.5245e+10        0.36145193        -25.3184781         3.95818485         -147.51623         0.13911021         -139.24823        0.207667353        -21.6572014
1.525e+10       0.362565709        -25.6250205         3.95611163        -147.776793        0.139095383        -139.476793        0.208604348        -22.0327446
1.5255e+10       0.363679722        -25.9311283         3.95403033        -148.037349        0.139080235        -139.705349        0.209541855        -22.4070039
1.526e+10       0.364793957        -26.2368044         3.95194096        -148.297899        0.139064767        -139.933899        0.210479853        -22.7799948
1.5265e+10       0.365908399        -26.5420519         3.94984354        -148.558442        0.139048979        -140.162442        0.211418318        -23.1517321
1.527e+10       0.367023038        -26.8468736         3.94773809        -148.818978        0.139032871        -140.390978        0.212357226        -23.5222308
1.5275e+10       0.368137859        -27.1512725         3.94562461        -149.079506        0.139016443        -140.619506        0.213296557        -23.8915053
1.528e+10        0.36925285        -27.4552515         3.94350313        -149.340025        0.138999696        -140.848025        0.214236287        -24.2595701
1.5285e+10       0.370367998        -27.7588134         3.94137366        -149.600536        0.138982629        -141.076536        0.215176395        -24.6264394
1.529e+10       0.371483291        -28.0619611         3.93923622        -149.861038        0.138965243        -141.305038        0.216116858         -24.992127
1.5295e+10       0.372598716        -28.3646972         3.93709081         -150.12153        0.138947537         -141.53353        0.217057656        -25.3566467
1.53e+10       0.373714259        -28.6670246         3.93493747        -150.382012        0.138929513        -141.762012        0.217998767         -25.720012
1.5305e+10        0.37482991        -28.9689461          3.9327762        -150.642484        0.138911171        -141.990484        0.218940171        -26.0822363
1.531e+10       0.375945655        -29.2704642         3.93060701        -150.902945        0.138892509        -142.218945        0.219881846        -26.4433326
1.5315e+10       0.377061481        -29.5715816         3.92842994        -151.163395         0.13887353        -142.447395        0.220823772         -26.803314
1.532e+10       0.378177377        -29.8723011         3.92624499        -151.423833        0.138854232        -142.675833        0.221765929        -27.1621931
1.5325e+10       0.379293331        -30.1726252         3.92405218        -151.684259        0.138834617        -142.904259        0.222708297        -27.5199826
1.533e+10       0.380409329        -30.4725564         3.92185153        -151.944673        0.138814684        -143.132673        0.223650855        -27.8766947
1.5335e+10       0.381525359        -30.7720975         3.91964306        -152.205073        0.138794434        -143.361073        0.224593585        -28.2323416
1.534e+10       0.382641411        -31.0712507         3.91742678         -152.46546        0.138773866         -143.58946        0.225536467        -28.5869355
1.5345e+10        0.38375747        -31.3700188          3.9152027        -152.725833        0.138752982        -143.817833        0.226479483         -28.940488
1.535e+10       0.384873526        -31.6684041         3.91297086        -152.986192        0.138731781        -144.046192        0.227422612        -29.2930108
1.5355e+10       0.385989567        -31.9664091         3.91073126        -153.246537        0.138710264        -144.274537        0.228365836        -29.6445154
1.536e+10       0.387105579        -32.2640362         3.90848393        -153.506866        0.138688431        -144.502866        0.229309137        -29.9950132
1.5365e+10       0.388221553        -32.5612878         3.90622888        -153.767179        0.138666282        -144.731179        0.230252496        -30.3445152
1.537e+10       0.389337474        -32.8581663         3.90396614        -154.027477        0.138643818        -144.959477        0.231195896        -30.6930324
1.5375e+10       0.390453333         -33.154674         3.90169571        -154.287758        0.138621038        -145.187758        0.232139318        -31.0405756
1.538e+10       0.391569116        -33.4508132         3.89941762        -154.548022        0.138597944        -145.416022        0.233082745        -31.3871556
1.5385e+10       0.392684813        -33.7465862         3.89713189        -154.808269        0.138574535        -145.644269        0.234026158        -31.7327827
1.539e+10       0.393800412        -34.0419953         3.89483854        -155.068499        0.138550811        -145.872499        0.234969542        -32.0774674
1.5395e+10       0.394915901        -34.3370428         3.89253758         -155.32871        0.138526774         -146.10071        0.235912878        -32.4212197
1.54e+10       0.396031268        -34.6317307         3.89022904        -155.588903        0.138502423        -146.328903        0.236856149        -32.7640498
1.5405e+10       0.397146502        -34.9260615         3.88791294        -155.849076        0.138477759        -146.557076        0.237799339        -33.1059676
1.541e+10       0.398261592        -35.2200371         3.88558929        -156.109231        0.138452782        -146.785231        0.238742431        -33.4469828
1.5415e+10       0.399376525        -35.5136598         3.88325812        -156.369365        0.138427493        -147.013365        0.239685408         -33.787105
1.542e+10       0.400491292        -35.8069317         3.88091944        -156.629479        0.138401891        -147.241479        0.240628255        -34.1263436
1.5425e+10        0.40160588        -36.0998549         3.87857328        -156.889573        0.138375977        -147.469573        0.241570954        -34.4647081
1.543e+10       0.402720278        -36.3924314         3.87621966        -157.149645        0.138349752        -147.697645        0.242513491        -34.8022075
1.5435e+10       0.403834475        -36.6846634         3.87385859        -157.409696        0.138323216        -147.925696        0.243455849         -35.138851
1.544e+10       0.404948461        -36.9765528         3.87149011        -157.669725        0.138296369        -148.153725        0.244398012        -35.4746475
1.5445e+10       0.406062222        -37.2681017         3.86911422        -157.929732        0.138269212        -148.381732        0.245339965        -35.8096058
1.545e+10        0.40717575         -37.559312         3.86673095        -158.189716        0.138241744        -148.609716        0.246281693        -36.1437345
1.5455e+10       0.408289032        -37.8501858         3.86434032        -158.449677        0.138213967        -148.837677        0.247223181        -36.4770422
1.546e+10       0.409402058         -38.140725         3.86194236        -158.709614        0.138185881        -149.065614        0.248164413        -36.8095373
1.5465e+10       0.410514816        -38.4309314         3.85953708        -158.969527        0.138157487        -149.293527        0.249105374        -37.1412281
1.547e+10       0.411627296        -38.7208071         3.85712451        -159.229415        0.138128784        -149.521415        0.250046051        -37.4721228
1.5475e+10       0.412739488        -39.0103539         3.85470466        -159.489279        0.138099773        -149.749279        0.250986427        -37.8022295
1.548e+10       0.413851379        -39.2995736         3.85227757        -159.749117        0.138070454        -149.977117        0.251926489        -38.1315561
1.5485e+10       0.414962961        -39.5884681         3.84984324         -160.00893        0.138040829         -150.20493        0.252866223        -38.4601104
1.549e+10       0.416074221        -39.8770393         3.84740172        -160.268716        0.138010897        -150.432716        0.253805613        -38.7879002
1.5495e+10       0.417185149         -40.165289           3.844953        -160.528476        0.137980659        -150.660476        0.254744647         -39.114933
1.55e+10       0.418295735        -40.4532188         3.84249713        -160.788209        0.137950115        -150.888209         0.25568331        -39.4412164
1.5505e+10       0.419405968        -40.7408307         3.84003412        -161.047915        0.137919266        -151.115915        0.256621589        -39.7667578
1.551e+10       0.420515837        -41.0281264           3.837564        -161.307592        0.137888112        -151.343592        0.257559469        -40.0915645
1.5515e+10       0.421625333        -41.3151075         3.83508679        -161.567242        0.137856654        -151.571242        0.258496937        -40.4156436
1.552e+10       0.422734445        -41.6017758          3.8326025        -161.826863        0.137824893        -151.798863        0.259433981        -40.7390022
1.5525e+10       0.423843162         -41.888133         3.83011117        -162.086455        0.137792828        -152.026455        0.260370586        -41.0616473
1.553e+10       0.424951474        -42.1741808         3.82761282        -162.346017         0.13776046        -152.254017        0.261306739        -41.3835858
1.5535e+10       0.426059371        -42.4599208         3.82510747        -162.605549         0.13772779        -152.481549        0.262242428        -41.7048246
1.554e+10       0.427166843        -42.7453546         3.82259515        -162.865052        0.137694818        -152.709052        0.263177639        -42.0253702
1.5545e+10       0.428273879         -43.030484         3.82007588        -163.124523        0.137661545        -152.936523         0.26411236        -42.3452293
1.555e+10        0.42938047        -43.3153104         3.81754968        -163.383964        0.137627971        -153.163964        0.265046578        -42.6644083
1.5555e+10       0.430486605        -43.5998356         3.81501658        -163.643373        0.137594097        -153.391373        0.265980281        -42.9829138
1.556e+10       0.431592274         -43.884061          3.8124766         -163.90275        0.137559923         -153.61875        0.266913456         -43.300752
1.5565e+10       0.432697468        -44.1679882         3.80992976        -164.162095         0.13752545        -153.846095        0.267846091        -43.6179292
1.557e+10       0.433802176        -44.4516188          3.8073761        -164.421407        0.137490678        -154.073407        0.268778173        -43.9344515
1.5575e+10       0.434906389        -44.7349543         3.80481564        -164.680686        0.137455609        -154.300686        0.269709691         -44.250325
1.558e+10       0.436010097        -45.0179961         3.80224839        -164.939931        0.137420242        -154.527931        0.270640632        -44.5655556
1.5585e+10       0.437113289        -45.3007458         3.79967439        -165.199142        0.137384577        -154.755142        0.271570986        -44.8801494
1.559e+10       0.438215957        -45.5832049         3.79709366        -165.458319        0.137348617        -154.982319        0.272500739        -45.1941119
1.5595e+10       0.439318091        -45.8653748         3.79450622        -165.717462        0.137312361        -155.209462         0.27342988        -45.5074491
1.56e+10        0.44041968        -46.1472569         3.79191211        -165.976569        0.137275809        -155.436569        0.274358399        -45.8201666
1.5605e+10       0.441520716        -46.4288527         3.78931134        -166.235641        0.137238963        -155.663641        0.275286282        -46.1322699
1.561e+10       0.442621189        -46.7101636         3.78670394        -166.494676        0.137201823        -155.890676         0.27621352        -46.4437646
1.5615e+10       0.443721089         -46.991191         3.78408995        -166.753676        0.137164389        -156.117676          0.2771401        -46.7546561
1.562e+10       0.444820406        -47.2719363         3.78146937        -167.012638        0.137126662        -156.344638        0.278066013        -47.0649496
1.5625e+10       0.445919133        -47.5524009         3.77884225        -167.271564        0.137088644        -156.571564        0.278991245        -47.3746506
1.563e+10       0.447017258         -47.832586          3.7762086        -167.530452        0.137050333        -156.798452        0.279915788        -47.6837642
1.5635e+10       0.448114773        -48.1124931         3.77356845        -167.789302        0.137011731        -157.025302        0.280839629        -47.9922956
1.564e+10       0.449211669        -48.3921235         3.77092183        -168.048113         0.13697284        -157.252113        0.281762759        -48.3002498
1.5645e+10       0.450307936        -48.6714784         3.76826876        -168.306886        0.136933658        -157.478886        0.282685166        -48.6076318
1.565e+10       0.451403566        -48.9505593         3.76560927         -168.56562        0.136894187         -157.70562         0.28360684        -48.9144466
1.5655e+10       0.452498548        -49.2293673         3.76294339        -168.824314        0.136854427        -157.932314        0.284527771        -49.2206989
1.566e+10       0.453592874        -49.5079038         3.76027115        -169.082969         0.13681438        -158.158969        0.285447948        -49.5263937
1.5665e+10       0.454686536        -49.7861699         3.75759256        -169.341583        0.136774046        -158.385583         0.28636736        -49.8315356
1.567e+10       0.455779523         -50.064167         3.75490766        -169.600156        0.136733425        -158.612156        0.287285999        -50.1361294
1.5675e+10       0.456871827        -50.3418963         3.75221648        -169.858689        0.136692518        -158.838689        0.288203853        -50.4401796
1.568e+10        0.45796344         -50.619359         3.74951904         -170.11718        0.136651326         -159.06518        0.289120913        -50.7436907
1.5685e+10       0.459054352        -50.8965563         3.74681537        -170.375629        0.136609849        -159.291629        0.290037169        -51.0466673
1.569e+10       0.460144554        -51.1734895         3.74410549        -170.634035        0.136568088        -159.518035        0.290952611        -51.3491138
1.5695e+10       0.461234038        -51.4501596         3.74138944          -170.8924        0.136526044          -159.7444        0.291867229        -51.6510345
1.57e+10       0.462322796        -51.7265678         3.73866724        -171.150721        0.136483718        -159.970721        0.292781014        -51.9524337
1.5705e+10       0.463410817        -52.0027154         3.73593892        -171.408999         0.13644111        -160.196999        0.293693956        -52.2533158
1.571e+10       0.464498095        -52.2786034          3.7332045        -171.667233         0.13639822        -160.423233        0.294606045        -52.5536849
1.5715e+10        0.46558462        -52.5542331         3.73046402        -171.925423         0.13635505        -160.649423        0.295517273        -52.8535451
1.572e+10       0.466670383        -52.8296054         3.72771751        -172.183568        0.136311601        -160.875568         0.29642763        -53.1529006
1.5725e+10       0.467755377        -53.1047216         3.72496498        -172.441669        0.136267872        -161.101669        0.297337107        -53.4517553
1.573e+10       0.468839593        -53.3795827         3.72220647        -172.699724        0.136223865        -161.327724        0.298245694        -53.7501132
1.5735e+10       0.469923022        -53.6541898         3.71944201        -172.957734        0.136179581        -161.553734        0.299153383        -54.0479783
1.574e+10       0.471005657        -53.9285441         3.71667163        -173.215697         0.13613502        -161.779697        0.300060164        -54.3453545
1.5745e+10       0.472087488        -54.2026465         3.71389534        -173.473615        0.136090182        -162.005615         0.30096603        -54.6422455
1.575e+10       0.473168508        -54.4764981         3.71111319        -173.731485        0.136045069        -162.231485         0.30187097        -54.9386551
1.5755e+10       0.474248708        -54.7500999         3.70832521        -173.989308        0.135999682        -162.457308        0.302774976        -55.2345871
1.576e+10       0.475328081        -55.0234531         3.70553141        -174.247084         0.13595402        -162.683084        0.303678041        -55.5300452
1.5765e+10       0.476406618        -55.2965586         3.70273183        -174.504812        0.135908086        -162.908812        0.304580154        -55.8250329
1.577e+10       0.477484312        -55.5694174         3.69992649        -174.762492        0.135861879        -163.134492        0.305481307        -56.1195539
1.5775e+10       0.478561153        -55.8420305         3.69711544        -175.020123          0.1358154        -163.360123        0.306381493        -56.4136116
1.578e+10       0.479637135         -56.114399         3.69429868        -175.277705        0.135768651        -163.585705        0.307280703        -56.7072097
1.5785e+10       0.480712249        -56.3865238         3.69147627        -175.535237        0.135721631        -163.811237        0.308178928        -57.0003515
1.579e+10       0.481786488        -56.6584058         3.68864821         -175.79272        0.135674342         -164.03672         0.30907616        -57.2930404
1.5795e+10       0.482859843        -56.9300461         3.68581455        -176.050153        0.135626784        -164.262153        0.309972392        -57.5852798
1.58e+10       0.483932307        -57.2014456         3.68297531        -176.307536        0.135578959        -164.487536        0.310867614         -57.877073
1.5805e+10       0.485003873        -57.4726052         3.68013052        -176.564867        0.135530867        -164.712867         0.31176182        -58.1684233
1.581e+10       0.486074532        -57.7435259         3.67728021        -176.822148        0.135482508        -164.938148        0.312655002        -58.4593339
1.5815e+10       0.487144277        -58.0142086         3.67442441        -177.079377        0.135433884        -165.163377         0.31354715        -58.7498081
1.582e+10         0.4882131        -58.2846542         3.67156316        -177.336554        0.135384995        -165.388554        0.314438259        -59.0398488
1.5825e+10       0.489280994        -58.5548636         3.66869647        -177.593679        0.135335843        -165.613679        0.315328319        -59.3294594
1.583e+10       0.490347951        -58.8248377         3.66582438        -177.850751        0.135286427        -165.838751        0.316217324        -59.6186428
1.5835e+10       0.491413964        -59.0945774         3.66294692         -178.10777         0.13523675         -166.06377        0.317105266        -59.9074021
1.584e+10       0.492479025        -59.3640836         3.66006412        -178.364736        0.135186811        -166.288736        0.317992137        -60.1957402
1.5845e+10       0.493543128        -59.6333571         3.65717601        -178.621649        0.135136611        -166.513649         0.31887793        -60.4836602
1.585e+10       0.494606264        -59.9023989         3.65428262        -178.878507        0.135086151        -166.738507        0.319762638        -60.7711649
1.5855e+10       0.495668427        -60.1712097         3.65138398        -179.135311        0.135035433        -166.963311        0.320646253        -61.0582573
1.586e+10       0.496729609        -60.4397904         3.64848011         -179.39206        0.134984456         -167.18806        0.321528768        -61.3449402
1.5865e+10       0.497789803        -60.7081418         3.64557106        -179.648755        0.134933223        -167.412755        0.322410177        -61.6312163
1.587e+10       0.498849003        -60.9762649         3.64265685        -179.905394        0.134881732        -167.637394        0.323290471        -61.9170886
1.5875e+10         0.4999072        -61.2441603         3.63973751         179.838023        0.134829987        -167.861977        0.324169645        -62.2025596
1.588e+10       0.500964388        -61.5118289         3.63681306         179.581496        0.134777986        -168.086504         0.32504769        -62.4876322
1.5885e+10       0.502020561        -61.7792715         3.63388355         179.325025        0.134725732        -168.310975        0.325924601         -62.772309
1.589e+10        0.50307571        -62.0464889         3.63094901         179.068611        0.134673224        -168.535389         0.32680037        -63.0565927
1.5895e+10       0.504129829        -62.3134819         3.62800945         178.812255        0.134620465        -168.759745        0.327674991        -63.3404858
1.59e+10       0.505182912        -62.5802512         3.62506492         178.555955        0.134567454        -168.984045        0.328548457         -63.623991
1.5905e+10       0.506234951        -62.8467977         3.62211543         178.299713        0.134514192        -169.208287        0.329420761        -63.9071108
1.591e+10        0.50728594        -63.1131221         3.61916104          178.04353        0.134460681         -169.43247        0.330291897        -64.1898477
1.5915e+10       0.508335872        -63.3792251         3.61620176         177.787405        0.134406921        -169.656595        0.331161858        -64.4722042
1.592e+10        0.50938474        -63.6451076         3.61323762         177.531338        0.134352914        -169.880662        0.332030639        -64.7541828
1.5925e+10       0.510432538        -63.9107702         3.61026866         177.275331        0.134298659        -170.104669        0.332898231        -65.0357859
1.593e+10       0.511479259        -64.1762137         3.60729491         177.019383        0.134244158        -170.328617         0.33376463        -65.3170158
1.5935e+10       0.512524897        -64.4414388          3.6043164         176.763495        0.134189412        -170.552505         0.33462983        -65.5978751
1.594e+10       0.513569445        -64.7064463         3.60133316         176.507667        0.134134422        -170.776333        0.335493823        -65.8783659
1.5945e+10       0.514612897        -64.9712368         3.59834522         176.251899        0.134079188        -171.000101        0.336356603        -66.1584906
1.595e+10       0.515655246         -65.235811         3.59535261         175.996192        0.134023712        -171.223808        0.337218165        -66.4382515
1.5955e+10       0.516696487        -65.5001698         3.59235536         175.740546        0.133967994        -171.447454        0.338078503        -66.7176509
1.596e+10       0.517736611        -65.7643137         3.58935351         175.484962        0.133912036        -171.671038        0.338937611         -66.996691
1.5965e+10       0.518775615        -66.0282434         3.58634708         175.229439        0.133855837        -171.894561        0.339795483         -67.275374
1.597e+10       0.519813491        -66.2919596          3.5833361         174.973978          0.1337994        -172.118022        0.340652113        -67.5537021
1.5975e+10       0.520850233        -66.5554631         3.58032062          174.71858        0.133742724         -172.34142        0.341507494        -67.8316774
1.598e+10       0.521885835        -66.8187544         3.57730065         174.463244        0.133685812        -172.564756        0.342361623         -68.109302
1.5985e+10        0.52292029        -67.0818342         3.57427624         174.207971        0.133628663        -172.788029        0.343214492        -68.3865781
1.599e+10       0.523953594        -67.3447033          3.5712474         173.952761        0.133571279        -173.011239        0.344066097        -68.6635078
1.5995e+10        0.52498574        -67.6073621         3.56821418         173.697615        0.133513661        -173.234385        0.344916432         -68.940093
1.6e+10       0.526016722        -67.8698115          3.5651766         173.442533        0.133455809        -173.457467        0.345765491        -69.2163359
! Noise params
1.4e+10               0.4        0.345685703          131.55919       0.0952423449
1.4005e+10          0.400225         0.34525855         131.715752        0.095143739
1.401e+10           0.40045        0.344830386         131.872204       0.0950458405
1.4015e+10          0.400675        0.344401208         132.028545       0.0949486537
1.402e+10            0.4009        0.343971018         132.184774       0.0948521826
1.4025e+10          0.401125        0.343539815          132.34089       0.0947564315
1.403e+10           0.40135        0.343107599         132.496893       0.0946614044
1.4035e+10          0.401575        0.342674369         132.652781       0.0945671054
1.404e+10            0.4018        0.342240125         132.808553       0.0944735385
1.4045e+10          0.402025        0.341804867         132.964209       0.0943807076
1.405e+10           0.40225        0.341368595         133.119748       0.0942886167
1.4055e+10          0.402475        0.340931309         133.275168       0.0941972697
1.406e+10            0.4027        0.340493008         133.430469       0.0941066704
1.4065e+10          0.402925        0.340053692          133.58565       0.0940168227
1.407e+10           0.40315        0.339613362         133.740709       0.0939277303
1.4075e+10          0.403375        0.339172016         133.895646        0.093839397
1.408e+10            0.4036        0.338729655          134.05046       0.0937518264
1.4085e+10          0.403825        0.338286279          134.20515       0.0936650222
1.409e+10           0.40405        0.337841888         134.359714       0.0935789879
1.4095e+10          0.404275        0.337396481         134.514153       0.0934937273
1.41e+10            0.4045        0.336950059         134.668463       0.0934092436
1.4105e+10          0.404725        0.336502621         134.822646       0.0933255406
1.411e+10           0.40495        0.336054167         134.976699       0.0932426215
1.4115e+10          0.405175        0.335604698         135.130622       0.0931604897
1.412e+10            0.4054        0.335154213         135.284413       0.0930791486
1.4125e+10          0.405625        0.334702712         135.438072       0.0929986015
1.413e+10           0.40585        0.334250196         135.591597       0.0929188517
1.4135e+10          0.406075        0.333796664         135.744987       0.0928399022
1.414e+10            0.4063        0.333342116         135.898241       0.0927617564
1.4145e+10          0.406525        0.332886553         136.051359       0.0926844172
1.415e+10           0.40675        0.332429974         136.204338       0.0926078878
1.4155e+10          0.406975         0.33197238         136.357178       0.0925321712
1.416e+10            0.4072        0.331513771         136.509878       0.0924572702
1.4165e+10          0.407425        0.331054146         136.662435        0.092383188
1.417e+10           0.40765        0.330593507         136.814851       0.0923099272
1.4175e+10          0.407875        0.330131852         136.967122       0.0922374908
1.418e+10            0.4081        0.329669183         137.119248       0.0921658814
1.4185e+10          0.408325          0.3292055         137.271228       0.0920951019
1.419e+10           0.40855        0.328740802         137.423061       0.0920251548
1.4195e+10          0.408775         0.32827509         137.574744       0.0919560429
1.42e+10             0.409        0.327808364         137.726278       0.0918877686
1.4205e+10          0.409225        0.327340624          137.87766       0.0918203345
1.421e+10           0.40945        0.326871871          138.02889        0.091753743
1.4215e+10          0.409675        0.326402105         138.179967       0.0916879966
1.422e+10            0.4099        0.325931327         138.330888       0.0916230977
1.4225e+10          0.410125        0.325459536         138.481653       0.0915590484
1.423e+10           0.41035        0.324986733          138.63226       0.0914958511
1.4235e+10          0.410575        0.324512918         138.782708        0.091433508
1.424e+10            0.4108        0.324038092         138.932996       0.0913720213
1.4245e+10          0.411025        0.323562255         139.083122       0.0913113929
1.425e+10           0.41125        0.323085408         139.233086        0.091251625
1.4255e+10          0.411475         0.32260755         139.382885       0.0911927196
1.426e+10            0.4117        0.322128683         139.532518       0.0911346785
1.4265e+10          0.411925        0.321648807         139.681984       0.0910775037
1.427e+10           0.41215        0.321167923         139.831282       0.0910211969
1.4275e+10          0.412375         0.32068603          139.98041         0.09096576
1.428e+10            0.4126         0.32020313         140.129366       0.0909111946
1.4285e+10          0.412825        0.319719223          140.27815       0.0908575024
1.429e+10           0.41305        0.319234309         140.426759        0.090804685
1.4295e+10          0.413275         0.31874839         140.575192       0.0907527439
1.43e+10            0.4135        0.318261466         140.723449       0.0907016806
1.4305e+10          0.413725        0.317773537         140.871526       0.0906514966
1.431e+10           0.41395        0.317284605         141.019424       0.0906021931
1.4315e+10          0.414175        0.316794669         141.167139       0.0905537716
1.432e+10            0.4144        0.316303732         141.314671       0.0905062332
1.4325e+10          0.414625        0.315811792         141.462019       0.0904595791
1.433e+10           0.41485        0.315318852         141.609179       0.0904138106
1.4335e+10          0.415075        0.314824912         141.756152       0.0903689285
1.434e+10            0.4153        0.314329972         141.902935       0.0903249341
1.4345e+10          0.415525        0.313834035         142.049527       0.0902818282
1.435e+10           0.41575          0.3133371         142.195926       0.0902396117
1.4355e+10          0.415975        0.312839168         142.342131       0.0901982854
1.436e+10            0.4162         0.31234024         142.488139       0.0901578502
1.4365e+10          0.416425        0.311840318         142.633949       0.0901183067
1.437e+10           0.41665        0.311339402          142.77956       0.0900796557
1.4375e+10          0.416875        0.310837494          142.92497       0.0900418976
1.438e+10            0.4171        0.310334594         143.070176       0.0900050331
1.4385e+10          0.417325        0.309830703         143.215178       0.0899690626
1.439e+10           0.41755        0.309325822         143.359973       0.0899339865
1.4395e+10          0.417775        0.308819953          143.50456       0.0898998051
1.44e+10             0.418        0.308313097         143.648937       0.0898665189
1.4405e+10          0.418225        0.307805254         143.793102       0.0898341279
1.441e+10           0.41845        0.307296427         143.937053       0.0898026323
1.4415e+10          0.418675        0.306786616         144.080788       0.0897720324
1.442e+10            0.4189        0.306275822         144.224306        0.089742328
1.4425e+10          0.419125        0.305764048         144.367605       0.0897135192
1.443e+10           0.41935        0.305251293         144.510682       0.0896856059
1.4435e+10          0.419575         0.30473756         144.653536       0.0896585879
1.444e+10            0.4198        0.304222849         144.796165       0.0896324651
1.4445e+10          0.420025        0.303707163         144.938567       0.0896072371
1.445e+10           0.42025        0.303190503          145.08074       0.0895829036
1.4455e+10          0.420475         0.30267287         145.222682       0.0895594643
1.446e+10            0.4207        0.302154265         145.364391       0.0895369186
1.4465e+10          0.420925        0.301634691         145.505865       0.0895152661
1.447e+10           0.42115        0.301114148         145.647101       0.0894945061
1.4475e+10          0.421375        0.300592639         145.788098       0.0894746381
1.448e+10            0.4216        0.300070165         145.928854       0.0894556612
1.4485e+10          0.421825        0.299546727         146.069367       0.0894375747
1.449e+10           0.42205        0.299022328         146.209634       0.0894203777
1.4495e+10          0.422275        0.298496969         146.349653       0.0894040695
1.45e+10            0.4225        0.297970652         146.489422       0.0893886488
1.4505e+10          0.422725        0.297443378         146.628939       0.0893741149
1.451e+10           0.42295         0.29691515         146.768202       0.0893604664
1.4515e+10          0.423175         0.29638597         146.907208       0.0893477023
1.452e+10            0.4234        0.295855839         147.045956       0.0893358214
1.4525e+10          0.423625        0.295324759         147.184442       0.0893248223
1.453e+10           0.42385        0.294792733         147.322665       0.0893147038
1.4535e+10          0.424075        0.294259762         147.460621       0.0893054642
1.454e+10            0.4243        0.293725849          147.59831       0.0892971023
1.4545e+10          0.424525        0.293190995         147.735728       0.0892896164
1.455e+10           0.42475        0.292655203         147.872874       0.0892830049
1.4555e+10          0.424975        0.292118475         148.009744       0.0892772662
1.456e+10            0.4252        0.291580813         148.146336       0.0892723984
1.4565e+10          0.425425         0.29104222         148.282647       0.0892683998
1.457e+10           0.42565        0.290502698         148.418676       0.0892652686
1.4575e+10          0.425875        0.289962248          148.55442       0.0892630027
1.458e+10            0.4261        0.289420875         148.689876       0.0892616001
1.4585e+10          0.426325        0.288878579         148.825041       0.0892610589
1.459e+10           0.42655        0.288335364         148.959913       0.0892613769
1.4595e+10          0.426775        0.287791232          149.09449       0.0892625518
1.46e+10             0.427        0.287246186         149.228768       0.0892645814
1.4605e+10          0.427225        0.286700228         149.362745       0.0892674635
1.461e+10           0.42745        0.286153361         149.496418       0.0892711955
1.4615e+10          0.427675        0.285605589         149.629785       0.0892757751
1.462e+10            0.4279        0.285056912         149.762843       0.0892811997
1.4625e+10          0.428125        0.284507335         149.895588       0.0892874668
1.463e+10           0.42835        0.283956861         150.028019       0.0892945737
1.4635e+10          0.428575        0.283405491         150.160132       0.0893025177
1.464e+10            0.4288         0.28285323         150.291924       0.0893112961
1.4645e+10          0.429025         0.28230008         150.423393        0.089320906
1.465e+10           0.42925        0.281746044         150.554536       0.0893313444
1.4655e+10          0.429475        0.281191126         150.685349       0.0893426085
1.466e+10            0.4297        0.280635328          150.81583       0.0893546953
1.4665e+10          0.429925        0.280078655         150.945975       0.0893676015
1.467e+10           0.43015        0.279521108         151.075782       0.0893813242
1.4675e+10          0.430375        0.278962692         151.205247         0.08939586
1.468e+10            0.4306         0.27840341         151.334367       0.0894112057
1.4685e+10          0.430825        0.277843266          151.46314        0.089427358
1.469e+10           0.43105        0.277282262         151.591562       0.0894443135
1.4695e+10          0.431275        0.276720403         151.719629       0.0894620686
1.47e+10            0.4315        0.276157693         151.847339       0.0894806199
1.4705e+10          0.431725        0.275594134         151.974688       0.0894999639
1.471e+10           0.43195         0.27502973         152.101673       0.0895200967
1.4715e+10          0.432175        0.274464486         152.228291       0.0895410148
1.472e+10            0.4324        0.273898406         152.354538       0.0895627143
1.4725e+10          0.432625        0.273331493          152.48041       0.0895851915
1.473e+10           0.43285        0.272763751         152.605905       0.0896084425
1.4735e+10          0.433075        0.272195184         152.731019       0.0896324632
1.474e+10            0.4333        0.271625797         152.855748       0.0896572497
1.4745e+10          0.433525        0.271055594         152.980088       0.0896827979
1.475e+10           0.43375        0.270484579         153.104037       0.0897091037
1.4755e+10          0.433975        0.269912756         153.227591       0.0897361628
1.476e+10            0.4342        0.269340129         153.350745       0.0897639711
1.4765e+10          0.434425        0.268766704         153.473496       0.0897925242
1.477e+10           0.43465        0.268192485          153.59584       0.0898218178
1.4775e+10          0.434875        0.267617476         153.717774       0.0898518474
1.478e+10            0.4351        0.267041682         153.839294       0.0898826086
1.4785e+10          0.435325        0.266465108         153.960396       0.0899140967
1.479e+10           0.43555        0.265887759         154.081075       0.0899463072
1.4795e+10          0.435775        0.265309639         154.201329       0.0899792355
1.48e+10             0.436        0.264730754         154.321153       0.0900128768
1.4805e+10          0.436225        0.264151109         154.440542       0.0900472263
1.481e+10           0.43645        0.263570708         154.559494       0.0900822792
1.4815e+10          0.436675        0.262989557         154.678003       0.0901180307
1.482e+10            0.4369        0.262407661         154.796066       0.0901544758
1.4825e+10          0.437125        0.261825027         154.913679       0.0901916094
1.483e+10           0.43735        0.261241658         155.030836       0.0902294266
1.4835e+10          0.437575        0.260657561         155.147535       0.0902679223
1.484e+10            0.4378        0.260072741          155.26377       0.0903070912
1.4845e+10          0.438025        0.259487204         155.379537       0.0903469281
1.485e+10           0.43825        0.258900957         155.494832       0.0903874278
1.4855e+10          0.438475        0.258314003         155.609651        0.090428585
1.486e+10            0.4387        0.257726351         155.723988       0.0904703943
1.4865e+10          0.438925        0.257138005         155.837839       0.0905128502
1.487e+10           0.43915        0.256548972           155.9512       0.0905559474
1.4875e+10          0.439375        0.255959259         156.064066       0.0905996801
1.488e+10            0.4396         0.25536887         156.176432       0.0906440429
1.4885e+10          0.439825        0.254777814         156.288294       0.0906890301
1.489e+10           0.44005        0.254186096         156.399646        0.090734636
1.4895e+10          0.440275        0.253593724         156.510485       0.0907808549
1.49e+10            0.4405        0.253000703         156.620804        0.090827681
1.4905e+10          0.440725        0.252407041         156.730599       0.0908751085
1.491e+10           0.44095        0.251812744         156.839865       0.0909231315
1.4915e+10          0.441175         0.25121782         156.948596       0.0909717439
1.492e+10            0.4414        0.250622276         157.056789         0.09102094
1.4925e+10          0.441625        0.250026119         157.164437       0.0910707135
1.493e+10           0.44185        0.249429356         157.271536       0.0911210585
1.4935e+10          0.442075        0.248831995         157.378079       0.0911719688
1.494e+10            0.4423        0.248234043         157.484063       0.0912234383
1.4945e+10          0.442525        0.247635508          157.58948       0.0912754606
1.495e+10           0.44275        0.247036399         157.694327       0.0913280296
1.4955e+10          0.442975        0.246436721         157.798597        0.091381139
1.496e+10            0.4432        0.245836485         157.902285       0.0914347823
1.4965e+10          0.443425        0.245235698         158.005385       0.0914889532
1.497e+10           0.44365        0.244634367         158.107891       0.0915436452
1.4975e+10          0.443875        0.244032502         158.209799       0.0915988519
1.498e+10            0.4441        0.243430111         158.311101       0.0916545668
1.4985e+10          0.444325        0.242827203         158.411793       0.0917107831
1.499e+10           0.44455        0.242223786         158.511867       0.0917674944
1.4995e+10          0.444775        0.241619869          158.61132        0.091824694
1.5e+10             0.445        0.241015461         158.710143       0.0918823751
1.5005e+10          0.445225        0.240410572         158.808331       0.0919405311
1.501e+10           0.44545         0.23980521         158.905878       0.0919991551
1.5015e+10          0.445675        0.239199385         159.002778       0.0920582404
1.502e+10            0.4459        0.238593107         159.099025       0.0921177801
1.5025e+10          0.446125        0.237986385         159.194611       0.0921777672
1.503e+10           0.44635        0.237379229         159.289531       0.0922381949
1.5035e+10          0.446575        0.236771648         159.383779       0.0922990562
1.504e+10            0.4468        0.236163654         159.477346       0.0923603441
1.5045e+10          0.447025        0.235555256         159.570228       0.0924220515
1.505e+10           0.44725        0.234946464         159.662417       0.0924841713
1.5055e+10          0.447475         0.23433729         159.753906       0.0925466965
1.506e+10            0.4477        0.233727743         159.844689       0.0926096199
1.5065e+10          0.447925        0.233117835         159.934759       0.0926729343
1.507e+10           0.44815        0.232507576         160.024108       0.0927366325
1.5075e+10          0.448375        0.231896979          160.11273       0.0928007072
1.508e+10            0.4486        0.231286053         160.200618       0.0928651512
1.5085e+10          0.448825        0.230674811         160.287764       0.0929299571
1.509e+10           0.44905        0.230063264         160.374161       0.0929951176
1.5095e+10          0.449275        0.229451423         160.459802       0.0930606253
1.51e+10            0.4495        0.228839302         160.544679       0.0931264728
1.5105e+10          0.449725        0.228226912         160.628785       0.0931926526
1.511e+10           0.44995        0.227614264         160.712113       0.0932591574
1.5115e+10          0.450175        0.227001373         160.794654       0.0933259796
1.512e+10            0.4504         0.22638825           160.8764       0.0933931117
1.5125e+10          0.450625        0.225774908         160.957345       0.0934605461
1.513e+10           0.45085        0.225161361         161.037481       0.0935282752
1.5135e+10          0.451075        0.224547621         161.116798       0.0935962915
1.514e+10            0.4513        0.223933702          161.19529       0.0936645873
1.5145e+10          0.451525        0.223319617         161.272948       0.0937331549
1.515e+10           0.45175         0.22270538         161.349764       0.0938019868
1.5155e+10          0.451975        0.222091006         161.425729       0.0938710751
1.516e+10            0.4522        0.221476507         161.500836       0.0939404122
1.5165e+10          0.452425          0.2208619         161.575075       0.0940099902
1.517e+10           0.45265        0.220247197         161.648439       0.0940798015
1.5175e+10          0.452875        0.219632415         161.720919       0.0941498383
1.518e+10            0.4531        0.219017567         161.792506       0.0942200926
1.5185e+10          0.453325         0.21840267         161.863191       0.0942905567
1.519e+10           0.45355        0.217787738         161.932965       0.0943612228
1.5195e+10          0.453775        0.217172787          162.00182       0.0944320829
1.52e+10             0.454        0.216557833         162.069746       0.0945031291
1.5205e+10          0.454225        0.215942892         162.136735       0.0945743536
1.521e+10           0.45445        0.215327981         162.202776       0.0946457484
1.5215e+10          0.454675        0.214713115         162.267862       0.0947173056
1.522e+10            0.4549        0.214098312         162.331982       0.0947890172
1.5225e+10          0.455125        0.213483588         162.395127       0.0948608753
1.523e+10           0.45535        0.212868961         162.457287       0.0949328717
1.5235e+10          0.455575        0.212254449         162.518453       0.0950049986
1.524e+10            0.4558        0.211640068         162.578616        0.095077248
1.5245e+10          0.456025        0.211025837         162.637764       0.0951496117
1.525e+10           0.45625        0.210411774         162.695889       0.0952220817
1.5255e+10          0.456475        0.209797898          162.75298         0.09529465
1.526e+10            0.4567        0.209184226         162.809028       0.0953673085
1.5265e+10          0.456925        0.208570779         162.864021       0.0954400491
1.527e+10           0.45715        0.207957575         162.917951       0.0955128638
1.5275e+10          0.457375        0.207344635         162.970806       0.0955857444
1.528e+10            0.4576        0.206731977         163.022576       0.0956586828
1.5285e+10          0.457825        0.206119621         163.073251        0.095731671
1.529e+10           0.45805        0.205507589         163.122819       0.0958047007
1.5295e+10          0.458275          0.2048959         163.171271       0.0958777638
1.53e+10            0.4585        0.204284576         163.218595       0.0959508523
1.5305e+10          0.458725        0.203673637          163.26478        0.096023958
1.531e+10           0.45895        0.203063106         163.309817       0.0960970726
1.5315e+10          0.459175        0.202453004         163.353692       0.0961701882
1.532e+10            0.4594        0.201843352         163.396396       0.0962432964
1.5325e+10          0.459625        0.201234175         163.437917       0.0963163892
1.533e+10           0.45985        0.200625493         163.478244       0.0963894584
1.5335e+10          0.460075         0.20001733         163.517365       0.0964624957
1.534e+10            0.4603         0.19940971         163.555269       0.0965354932
1.5345e+10          0.460525        0.198802655         163.591944       0.0966084425
1.535e+10           0.46075        0.198196191         163.627378       0.0966813355
1.5355e+10          0.460975        0.197590341         163.661561        0.096754164
1.536e+10            0.4612        0.196985129         163.694479         0.09682692
1.5365e+10          0.461425        0.196380582         163.726121       0.0968995951
1.537e+10           0.46165        0.195776723         163.756475       0.0969721812
1.5375e+10          0.461875         0.19517358          163.78553       0.0970446703
1.538e+10            0.4621        0.194571176         163.813271       0.0971170541
1.5385e+10          0.462325         0.19396954         163.839689       0.0971893244
1.539e+10           0.46255        0.193368698         163.864769       0.0972614731
1.5395e+10          0.462775        0.192768676           163.8885       0.0973334921
1.54e+10             0.463        0.192169502          163.91087       0.0974053733
1.5405e+10          0.463225        0.191571205         163.931865       0.0974771084
1.541e+10           0.46345        0.190973811         163.951473       0.0975486894
1.5415e+10          0.463675         0.19037735         163.969681       0.0976201081
1.542e+10            0.4639         0.18978185         163.986477       0.0976913565
1.5425e+10          0.464125        0.189187341         164.001848       0.0977624264
1.543e+10           0.46435        0.188593852          164.01578       0.0978333098
1.5435e+10          0.464575        0.188001414         164.028262       0.0979039985
1.544e+10            0.4648        0.187410057         164.039279       0.0979744845
1.5445e+10          0.465025        0.186819811         164.048819       0.0980447597
1.545e+10           0.46525        0.186230709         164.056868       0.0981148161
1.5455e+10          0.465475        0.185642781         164.063414       0.0981846456
1.546e+10            0.4657         0.18505606         164.068443       0.0982542402
1.5465e+10          0.465925        0.184470579         164.071942       0.0983235919
1.547e+10           0.46615        0.183886369         164.073897       0.0983926927
1.5475e+10          0.466375        0.183303465         164.074295       0.0984615346
1.548e+10            0.4666        0.182721901         164.073123       0.0985301096
1.5485e+10          0.466825         0.18214171         164.070368       0.0985984098
1.549e+10           0.46705        0.181562928         164.066015       0.0986664272
1.5495e+10          0.467275        0.180985588         164.060051        0.098734154
1.55e+10            0.4675        0.180409728         164.052463       0.0988015821
1.5505e+10          0.467725        0.179835383         164.043237       0.0988687038
1.551e+10           0.46795        0.179262589         164.032359       0.0989355112
1.5515e+10          0.468175        0.178691383         164.019817       0.0990019963
1.552e+10            0.4684        0.178121802         164.005596       0.0990681514
1.5525e+10          0.468625        0.177553886         163.989682       0.0991339687
1.553e+10           0.46885         0.17698767         163.972063       0.0991994404
1.5535e+10          0.469075        0.176423195         163.952724       0.0992645586
1.554e+10            0.4693          0.1758605         163.931653       0.0993293157
1.5545e+10          0.469525        0.175299625         163.908835       0.0993937039
1.555e+10           0.46975        0.174740608         163.884257       0.0994577155
1.5555e+10          0.469975        0.174183492         163.857905       0.0995213428
1.556e+10            0.4702        0.173628318         163.829766       0.0995845783
1.5565e+10          0.470425        0.173075126         163.799827       0.0996474141
1.557e+10           0.47065         0.17252396         163.768074       0.0997098428
1.5575e+10          0.470875        0.171974861         163.734494       0.0997718567
1.558e+10            0.4711        0.171427874         163.699074       0.0998334484
1.5585e+10          0.471325        0.170883041           163.6618       0.0998946101
1.559e+10           0.47155        0.170340406          163.62266       0.0999553345
1.5595e+10          0.471775        0.169800015          163.58164        0.100015614
1.56e+10             0.472        0.169261912         163.538728        0.100075441
1.5605e+10          0.472225        0.168726143         163.493911        0.100134809
1.561e+10           0.47245        0.168192755         163.447175        0.100193709
1.5615e+10          0.472675        0.167661793         163.398509        0.100252135
1.562e+10            0.4729        0.167133305         163.347901        0.100310079
1.5625e+10          0.473125        0.166607338         163.295337        0.100367534
1.563e+10           0.47335        0.166083942         163.240806        0.100424493
1.5635e+10          0.473575        0.165563163         163.184295        0.100480948
1.564e+10            0.4738        0.165045053         163.125793        0.100536892
1.5645e+10          0.474025        0.164529659         163.065289        0.100592318
1.565e+10           0.47425        0.164017033          163.00277        0.100647219
1.5655e+10          0.474475        0.163507225         162.938226        0.100701587
1.566e+10            0.4747        0.163000287         162.871646        0.100755416
1.5665e+10          0.474925        0.162496269         162.803018        0.100808699
1.567e+10           0.47515        0.161995225         162.732333        0.100861428
1.5675e+10          0.475375        0.161497206          162.65958        0.100913597
1.568e+10            0.4756        0.161002267         162.584749        0.100965198
1.5685e+10          0.475825         0.16051046         162.507829        0.101016225
1.569e+10           0.47605         0.16002184         162.428813         0.10106667
1.5695e+10          0.476275        0.159536462          162.34769        0.101116528
1.57e+10            0.4765         0.15905438         162.264452        0.101165791
1.5705e+10          0.476725        0.158575651          162.17909        0.101214452
1.571e+10           0.47695         0.15810033         162.091596        0.101262504
1.5715e+10          0.477175        0.157628474         162.001962        0.101309942
1.572e+10            0.4774         0.15716014          161.91018        0.101356758
1.5725e+10          0.477625        0.156695385         161.816245        0.101402945
1.573e+10           0.47785        0.156234268         161.720148        0.101448498
1.5735e+10          0.478075        0.155776846         161.621884        0.101493409
1.574e+10            0.4783        0.155323178         161.521447        0.101537672
1.5745e+10          0.478525        0.154873324         161.418832         0.10158128
1.575e+10           0.47875        0.154427342         161.314033        0.101624228
1.5755e+10          0.478975        0.153985294         161.207047        0.101666508
1.576e+10            0.4792        0.153547239         161.097868        0.101708115
1.5765e+10          0.479425        0.153113238         160.986495        0.101749042
1.577e+10           0.47965        0.152683352         160.872924        0.101789283
1.5775e+10          0.479875        0.152257644         160.757152        0.101828832
1.578e+10            0.4801        0.151836173         160.639178        0.101867681
1.5785e+10          0.480325        0.151419003         160.519001        0.101905827
1.579e+10           0.48055        0.151006197          160.39662        0.101943261
1.5795e+10          0.480775        0.150597816         160.272035        0.101979979
1.58e+10             0.481        0.150193924         160.145247        0.102015973
1.5805e+10          0.481225        0.149794584         160.016257        0.102051239
1.581e+10           0.48145        0.149399861         159.885066        0.102085771
1.5815e+10          0.481675        0.149009817         159.751678        0.102119561
1.582e+10            0.4819        0.148624516         159.616096        0.102152606
1.5825e+10          0.482125        0.148244024         159.478324        0.102184898
1.583e+10           0.48235        0.147868403         159.338367        0.102216432
1.5835e+10          0.482575         0.14749772         159.196229        0.102247203
1.584e+10            0.4828        0.147132038         159.051918        0.102277204
1.5845e+10          0.483025        0.146771423          158.90544        0.102306431
1.585e+10           0.48325        0.146415939         158.756803        0.102334877
1.5855e+10          0.483475        0.146065651         158.606016        0.102362537
1.586e+10            0.4837        0.145720625         158.453089        0.102389406
1.5865e+10          0.483925        0.145380926          158.29803        0.102415478
1.587e+10           0.48415        0.145046618         158.140853        0.102440748
1.5875e+10          0.484375        0.144717767         157.981567        0.102465211
1.588e+10            0.4846        0.144394437         157.820188        0.102488861
1.5885e+10          0.484825        0.144076695         157.656727        0.102511693
1.589e+10           0.48505        0.143764604           157.4912        0.102533702
1.5895e+10          0.485275        0.143458229         157.323623        0.102554883
1.59e+10            0.4855        0.143157635         157.154011         0.10257523
1.5905e+10          0.485725        0.142862887         156.982382        0.102594739
1.591e+10           0.48595        0.142574048         156.808755        0.102613405
1.5915e+10          0.486175        0.142291183         156.633149        0.102631223
1.592e+10            0.4864        0.142014355         156.455584        0.102648187
1.5925e+10          0.486625        0.141743628         156.276081        0.102664294
1.593e+10           0.48685        0.141479064         156.094662        0.102679538
1.5935e+10          0.487075        0.141220726         155.911352        0.102693915
1.594e+10            0.4873        0.140968677         155.726172        0.102707419
1.5945e+10          0.487525        0.140722979          155.53915        0.102720047
1.595e+10           0.48775        0.140483692          155.35031        0.102731794
1.5955e+10          0.487975        0.140250878         155.159681        0.102742655
1.596e+10            0.4882        0.140024596         154.967289        0.102752625
1.5965e+10          0.488425        0.139804908         154.773165        0.102761701
1.597e+10           0.48865        0.139591872         154.577337        0.102769878
1.5975e+10          0.488875        0.139385546         154.379838        0.102777152
1.598e+10            0.4891        0.139185989         154.180699        0.102783518
1.5985e+10          0.489325        0.138993257         153.979954        0.102788972
1.599e+10           0.48955        0.138807408         153.777635         0.10279351
1.5995e+10          0.489775        0.138628496         153.573778        0.102797128
1.6e+10              0.49        0.138456578         153.368419        0.102799822
