! Created Fri Mar 21 12:16:34 2025
# hz S ma R 50
! 2 Port Network Data from SP1.SP block
! freq  magS11  angS11  magS21  angS21  magS12  angS12  magS22  angS22  
!     
1.4e+10       0.100287622         -56.168256         4.04274345         112.286072        0.127269504         111.686072        0.333327982         9.09867309
1.4005e+10      0.0997793477         -56.790366         4.04307247          112.10993        0.127337292          111.54643        0.332755728         8.91162415
1.401e+10      0.0992768181          -57.41814         4.04339787         111.933701        0.127404997         111.406701        0.332182356         8.72436515
1.4015e+10       0.098780172        -58.0516117         4.04371963         111.757386        0.127472618         111.266886        0.331607866           8.536895
1.402e+10      0.0982895494        -58.6908123         4.04403772         111.580985        0.127540154         111.126985        0.331032258         8.34921261
1.4025e+10      0.0978050923        -59.3357706         4.04435212         111.404497        0.127607605         110.986997        0.330455532         8.16131685
1.403e+10      0.0973269445        -59.9865128          4.0446628         111.227923         0.12767497         110.846923        0.329877688         7.97320662
1.4035e+10      0.0968552514        -60.6430621         4.04496975         111.051262        0.127742248         110.706762        0.329298726         7.78488077
1.404e+10        0.09639016        -61.3054389         4.04527294         110.874516        0.127809437         110.566516        0.328718645         7.59633817
1.4045e+10      0.0959318189        -61.9736602         4.04557235         110.697683        0.127876538         110.426183        0.328137446         7.40757767
1.405e+10      0.0954803782        -62.6477398         4.04586795         110.520764        0.127943548         110.285764        0.327555128         7.21859812
1.4055e+10      0.0950359896         -63.327688         4.04615972         110.343759        0.128010468         110.145259        0.326971692         7.02939834
1.406e+10       0.094598806        -64.0135114         4.04644765         110.166667        0.128077297         110.004667        0.326387138         6.83997716
1.4065e+10      0.0941689815        -64.7052127          4.0467317          109.98949        0.128144033          109.86399        0.325801465         6.65033339
1.407e+10      0.0937466716        -65.4027906         4.04701186         109.812227        0.128210676         109.723227        0.325214675         6.46046584
1.4075e+10      0.0933320326        -66.1062395         4.04728809         109.634877        0.128277224         109.582377        0.324626766          6.2703733
1.408e+10      0.0929252221        -66.8155497         4.04756039         109.457442        0.128343678         109.441442        0.324037738         6.08005455
1.4085e+10      0.0925263983        -67.5307066         4.04782872          109.27992        0.128410035          109.30042        0.323447593         5.88950837
1.409e+10      0.0921357202         -68.251691         4.04809306         109.102313        0.128476296         109.159313        0.322856331         5.69873352
1.4095e+10      0.0917533476        -68.9784789         4.04835339          108.92462        0.128542459          109.01812         0.32226395         5.50772874
1.41e+10      0.0913794405        -69.7110412         4.04860968         108.746842        0.128608524         108.876842        0.321670453         5.31649279
1.4105e+10      0.0910141595        -70.4493433         4.04886192         108.568977        0.128674489         108.735477        0.321075838          5.1250244
1.411e+10      0.0906576653        -71.1933457         4.04911007         108.391027        0.128740353         108.594027        0.320480106         4.93332228
1.4115e+10      0.0903101186         -71.943003         4.04935413         108.212991        0.128806117         108.452491        0.319883258         4.74138514
1.412e+10      0.0899716801        -72.6982643         4.04959405          108.03487        0.128871778          108.31087        0.319285293         4.54921168
1.4125e+10      0.0896425102        -73.4590727         4.04982983         107.856663        0.128937336         108.169163        0.318686213         4.35680058
1.413e+10      0.0893227687        -74.2253656         4.05006143          107.67837         0.12900279          108.02737        0.318086016         4.16415053
1.4135e+10      0.0890126151        -74.9970743         4.05028883         107.499992        0.129068139         107.885492        0.317484705         3.97126019
1.414e+10      0.0887122077        -75.7741237         4.05051202         107.321529        0.129133383         107.743529        0.316882279          3.7781282
1.4145e+10      0.0884217041        -76.5564328         4.05073096          107.14298         0.12919852          107.60148        0.316278738         3.58475321
1.415e+10      0.0881412605        -77.3439141         4.05094563         106.964347        0.129263549         107.459347        0.315674083         3.39113384
1.4155e+10       0.087871032        -78.1364737         4.05115602         106.785628        0.129328469         107.317128        0.315068315         3.19726871
1.416e+10      0.0876111718        -78.9340112         4.05136209         106.606823        0.129393281         107.174823        0.314461434         3.00315642
1.4165e+10      0.0873618314          -79.73642         4.05156382         106.427934        0.129457982         107.032434         0.31385344         2.80879557
1.417e+10      0.0871231603        -80.5435867          4.0517612          106.24896        0.129522571          106.88996        0.313244335         2.61418473
1.4175e+10      0.0868953059        -81.3553915         4.05195419         106.069901        0.129587049         106.747401        0.312634118         2.41932246
1.418e+10      0.0866784128        -82.1717083         4.05214277         105.890756        0.129651413         106.604756         0.31202279         2.22420732
1.4185e+10      0.0864726234        -82.9924044         4.05232693         105.711528        0.129715663         106.462028        0.311410352         2.02883785
1.419e+10       0.086278077        -83.8173407         4.05250663         105.532214        0.129779799         106.319214        0.310796805         1.83321257
1.4195e+10      0.0860949096         -84.646372         4.05268185         105.352815        0.129843818         106.176315        0.310182149            1.63733
1.42e+10      0.0859232543        -85.4793466         4.05285257         105.173332        0.129907721         106.033332        0.309566385         1.44118863
1.4205e+10      0.0857632404        -86.3161072         4.05301877         104.993765        0.129971506         105.890265        0.308949514         1.24478694
1.421e+10      0.0856149935        -87.1564902         4.05318043         104.814113        0.130035172         105.747113        0.308331536         1.04812342
1.4215e+10      0.0854786354        -88.0003264         4.05333751         104.634376        0.130098719         105.603876        0.307712453        0.851196501
1.422e+10      0.0853542835         -88.847441            4.05349         104.454556        0.130162145         105.460556        0.307092265        0.654004642
1.4225e+10      0.0852420512        -89.6976538         4.05363786         104.274651        0.130225449         105.317151        0.306470972        0.456546265
1.423e+10      0.0851420469        -90.5507797         4.05378109         104.094662        0.130288632         105.173662        0.305848577        0.258819782
1.4235e+10      0.0850543747        -91.4066285         4.05391966         103.914588         0.13035169         105.030088        0.305225079       0.0608235899
1.424e+10      0.0849791335        -92.2650054         4.05405353         103.734431        0.130414625         104.886431         0.30460048       -0.137443929
1.4245e+10      0.0849164172        -93.1257115          4.0541827          103.55419        0.130477434          104.74269        0.303974781       -0.335984407
1.425e+10      0.0848663145        -93.9885437         4.05430712         103.373865        0.130540117         104.598865        0.303347983       -0.534799495
1.4255e+10      0.0848289087        -94.8532954         4.05442679         103.193456        0.130602673         104.454956        0.302720086       -0.733890857
1.426e+10      0.0848042775        -95.7197564         4.05454168         103.012964        0.130665101         104.310964        0.302091093       -0.933260174
1.4265e+10      0.0847924929        -96.5877138         4.05465176         102.832388          0.1307274         104.166888        0.301461003        -1.13290914
1.427e+10      0.0847936211        -97.4569521         4.05475701         102.651728        0.130789569         104.022728        0.300829818        -1.33283948
1.4275e+10      0.0848077226        -98.3272533         4.05485741         102.470986        0.130851607         103.878486         0.30019754        -1.53305291
1.428e+10      0.0848348516         -99.198398         4.05495294         102.290159        0.130913513         103.734159        0.299564169        -1.73355118
1.4285e+10      0.0848750563        -100.070165         4.05504356          102.10925        0.130975286          103.58975        0.298929707        -1.93433606
1.429e+10      0.0849283791        -100.942332         4.05512926         101.928258        0.131036925         103.445258        0.298294155        -2.13540934
1.4295e+10      0.0849948556        -101.814677         4.05521001         101.747182         0.13109843         103.300682        0.297657514        -2.33677279
1.43e+10      0.0850745157        -102.686977          4.0552858         101.566024        0.131159799         103.156024        0.297019786        -2.53842826
1.4305e+10      0.0851673828        -103.559009         4.05535659         101.384782        0.131221031         103.011282        0.296380972        -2.74037756
1.431e+10       0.085273474         -104.43055         4.05542236         101.203458        0.131282125         102.866458        0.295741073        -2.94262256
1.4315e+10      0.0853928002        -105.301382         4.05548309         101.022052        0.131343081         102.721552        0.295100091        -3.14516513
1.432e+10       0.085525366        -106.171283         4.05553875         100.840563        0.131403897         102.576563        0.294458027        -3.34800715
1.4325e+10        0.08567117        -107.040036         4.05558933         100.658991        0.131464573         102.431491        0.293814883        -3.55115055
1.433e+10      0.0858302043        -107.907426          4.0556348         100.477338        0.131525107         102.286338        0.293170661        -3.75459723
1.4335e+10      0.0860024551         -108.77324         4.05567513         100.295602        0.131585498         102.141102        0.292525361        -3.95834916
1.434e+10      0.0861879025        -109.637269          4.0557103         100.113783        0.131645746         101.995783        0.291878987        -4.16240831
1.4345e+10      0.0863865209        -110.499305         4.05574029         99.9318834         0.13170585         101.850383        0.291231538        -4.36677666
1.435e+10      0.0865982784        -111.359148         4.05576508         99.7499015        0.131765808         101.704901        0.290583017        -4.57145622
1.4355e+10      0.0868231378        -112.216597         4.05578464         99.5678378         0.13182562         101.559338        0.289933426        -4.77644903
1.436e+10       0.087061056        -113.071459         4.05579895         99.3856925        0.131885284         101.413693        0.289282766        -4.98175713
1.4365e+10      0.0873119846        -113.923544         4.05580798         99.2034657          0.1319448         101.267966         0.28863104        -5.18738259
1.437e+10      0.0875758699        -114.772668         4.05581171         99.0211575        0.132004167         101.122157        0.287978249        -5.39332752
1.4375e+10      0.0878526529         -115.61865         4.05581012          98.838768        0.132063384         100.976268        0.287324394        -5.59959402
1.438e+10      0.0881422696        -116.461316         4.05580318         98.6562973        0.132122449         100.830297        0.286669479        -5.80618423
1.4385e+10      0.0884446512        -117.300499         4.05579087         98.4737456        0.132181361         100.684246        0.286013504        -6.01310032
1.439e+10      0.0887597242        -118.136035         4.05577318          98.291113        0.132240121         100.538113        0.285356472        -6.22034446
1.4395e+10      0.0890874107        -118.967767         4.05575006         98.1083997        0.132298726           100.3919        0.284698385        -6.42791887
1.44e+10      0.0894276285        -119.795544         4.05572151         97.9256056        0.132357176         100.245606        0.284039245        -6.63582577
1.4405e+10       0.089780291        -120.619222          4.0556875          97.742731         0.13241547         100.099231        0.283379054        -6.84406742
1.441e+10      0.0901453081        -121.438662           4.055648          97.559776        0.132473607          99.952776        0.282717815        -7.05264609
1.4415e+10      0.0905225858        -122.253732         4.05560299         97.3767408        0.132531585         99.8062408        0.282055529        -7.26156409
1.442e+10      0.0909120264        -123.064307         4.05555245         97.1936254        0.132589404         99.6596254        0.281392198        -7.47082374
1.4425e+10      0.0913135292        -123.870267         4.05549635           97.01043        0.132647063           99.51293        0.280727826        -7.68042739
1.443e+10      0.0917269901        -124.671501         4.05543468         96.8271547        0.132704561         99.3661547        0.280062414        -7.89037743
1.4435e+10      0.0921523024        -125.467901          4.0553674         96.6437997        0.132761897         99.2192997        0.279395965        -8.10067626
1.444e+10      0.0925893563        -126.259368          4.0552945         96.4603651        0.132819069         99.0723651         0.27872848         -8.3113263
1.4445e+10      0.0930380398         -127.04581         4.05521596          96.276851        0.132876078          98.925351        0.278059964        -8.52233001
1.445e+10      0.0934982385        -127.827138         4.05513174         96.0932577        0.132932921         98.7782577        0.277390418        -8.73368988
1.4455e+10      0.0939698356        -128.603273         4.05504183         95.9095851        0.132989598         98.6310851        0.276719844        -8.94540841
1.446e+10      0.0944527128         -129.37414          4.0549462         95.7258336        0.133046108         98.4838336        0.276048246        -9.15748815
1.4465e+10      0.0949467498        -130.139671         4.05484483         95.5420032         0.13310245         98.3365032        0.275375625        -9.36993166
1.447e+10      0.0954518247        -130.899805          4.0547377          95.358094        0.133158623          98.189094        0.274701986        -9.58274153
1.4475e+10      0.0959678142        -131.654484         4.05462478         95.1741063        0.133214625         98.0416063        0.274027329        -9.79592039
1.448e+10       0.096494594        -132.403658         4.05450606         94.9900401        0.133270457         97.8940401        0.273351659        -10.0094709
1.4485e+10      0.0970320386        -133.147283          4.0543815         94.8058957        0.133326116         97.7463957        0.272674978        -10.2233957
1.449e+10      0.0975800215         -133.88532         4.05425109         94.6216731        0.133381603         97.5986731        0.271997289        -10.4376976
1.4495e+10      0.0981384158        -134.617734         4.05411481         94.4373726        0.133436915         97.4508726        0.271318595        -10.6523792
1.45e+10      0.0987070935        -135.344496         4.05397262         94.2529943        0.133492052         97.3029943        0.270638898        -10.8674434
1.4505e+10      0.0992859268        -136.065584         4.05382451         94.0685383        0.133547013         97.1550383        0.269958203         -11.082893
1.451e+10      0.0998747872        -136.780978         4.05367046         93.8840049        0.133601797         97.0070049        0.269276511        -11.2987308
1.4515e+10       0.100473546        -137.490665         4.05351044         93.6993941        0.133656403         96.8588941        0.268593827        -11.5149596
1.452e+10       0.101082075        -138.194635         4.05334442         93.5147061         0.13371083         96.7107061        0.267910153        -11.7315825
1.4525e+10       0.101700245        -138.892882          4.0531724         93.3299412        0.133765077         96.5624412        0.267225493        -11.9486022
1.453e+10       0.102327929        -139.585406         4.05299434         93.1450994        0.133819142         96.4140994        0.266539849        -12.1660219
1.4535e+10       0.102964998        -140.272209         4.05281022          92.960181        0.133873026          96.265681        0.265853226        -12.3838444
1.454e+10       0.103611324          -140.9533         4.05262003         92.7751861        0.133926726         96.1171861        0.265165626        -12.6020728
1.4545e+10       0.104266782        -141.628688         4.05242373         92.5901148        0.133980243         95.9686148        0.264477053        -12.8207103
1.455e+10       0.104931244        -142.298386          4.0522213         92.4049674        0.134033574         95.8199674        0.263787511        -13.0397599
1.4555e+10       0.105604584        -142.962414         4.05201273          92.219744        0.134086719          95.671244        0.263097004        -13.2592248
1.456e+10       0.106286679         -143.62079         4.05179799         92.0344449        0.134139678         95.5224449        0.262405533        -13.4791081
1.4565e+10       0.106977403         -144.27354         4.05157705         91.8490701        0.134192448         95.3735701        0.261713105        -13.6994131
1.457e+10       0.107676635        -144.920687         4.05134991         91.6636198        0.134245029         95.2246198        0.261019722        -13.9201431
1.4575e+10       0.108384251        -145.562263         4.05111652         91.4780944         0.13429742         95.0755944        0.260325387        -14.1413013
1.458e+10        0.10910013        -146.198298         4.05087688         91.2924938        0.134349619         94.9264938        0.259630106        -14.3628911
1.4585e+10       0.109824154        -146.828826         4.05063096         91.1068183        0.134401627         94.7773183        0.258933881        -14.5849158
1.459e+10       0.110556203        -147.453883         4.05037874         90.9210682        0.134453442         94.6280682        0.258236717        -14.8073789
1.4595e+10       0.111296159        -148.073506         4.05012019         90.7352435        0.134505062         94.4787435        0.257538618        -15.0302839
1.46e+10       0.112043906        -148.687737          4.0498553         90.5493444        0.134556488         94.3293444        0.256839588        -15.2536342
1.4605e+10        0.11279933        -149.296616         4.04958404         90.3633713        0.134607717         94.1798713        0.256139631        -15.4774335
1.461e+10       0.113562316        -149.900188          4.0493064         90.1773242         0.13465875         94.0303242        0.255438751        -15.7016852
1.4615e+10       0.114332753        -150.498496         4.04902234         89.9912033        0.134709584         93.8807033        0.254736952         -15.926393
1.462e+10       0.115110529        -151.091587         4.04873185         89.8050089        0.134760219         93.7310089         0.25403424        -16.1515606
1.4625e+10       0.115895534        -151.679509          4.0484349         89.6187411        0.134810654         93.5812411        0.253330618        -16.3771917
1.463e+10       0.116687661         -152.26231         4.04813148         89.4324001        0.134860888         93.4314001         0.25262609        -16.6032901
1.4635e+10       0.117486803         -152.84004         4.04782157         89.2459862        0.134910921         93.2814862        0.251920662        -16.8298596
1.464e+10       0.118292855         -153.41275         4.04750513         89.0594995         0.13496075         93.1314995        0.251214338        -17.0569041
1.4645e+10       0.119105713        -153.980491         4.04718216         88.8729403        0.135010375         92.9814403        0.250507123        -17.2844274
1.465e+10       0.119925274        -154.543315         4.04685263         88.6863087        0.135059795         92.8313087         0.24979902        -17.5124335
1.4655e+10       0.120751438        -155.101277         4.04651651          88.499605        0.135109009          92.681105        0.249090036        -17.7409265
1.466e+10       0.121584105        -155.654428         4.04617379         88.3128293        0.135158016         92.5308293        0.248380175        -17.9699103
1.4665e+10       0.122423178        -156.202823         4.04582445         88.1259819        0.135206814         92.3804819        0.247669442        -18.1993891
1.467e+10       0.123268559        -156.746517         4.04546846         87.9390629        0.135255404         92.2300629        0.246957842        -18.4293671
1.4675e+10       0.124120155        -157.285564         4.04510581         87.7520727        0.135303784         92.0795727         0.24624538        -18.6598484
1.468e+10       0.124977871         -157.82002         4.04473647         87.5650114        0.135351953         91.9290114        0.245532062        -18.8908374
1.4685e+10       0.125841616        -158.349939         4.04436043         87.3778792         0.13539991         91.7783792        0.244817891        -19.1223382
1.469e+10       0.126711298        -158.875377         4.04397765         87.1906763        0.135447655         91.6276763        0.244102875        -19.3543554
1.4695e+10        0.12758683        -159.396389         4.04358813          87.003403        0.135495185          91.476903        0.243387018        -19.5868933
1.47e+10       0.128468122        -159.913032         4.04319184         86.8160595          0.1355425         91.3260595        0.242670325        -19.8199565
1.4705e+10       0.129355089         -160.42536         4.04278876          86.628646        0.135589599          91.175146        0.241952803        -20.0535494
1.471e+10       0.130247647         -160.93343         4.04237887         86.4411628        0.135636482         91.0241628        0.241234456        -20.2876767
1.4715e+10       0.131145711        -161.437295         4.04196215           86.25361        0.135683147           90.87311        0.240515291        -20.5223429
1.472e+10       0.132049199        -161.937012         4.04153858         86.0659878        0.135729592         90.7219878        0.239795313         -20.757553
1.4725e+10       0.132958031        -162.432635         4.04110814         85.8782966        0.135775818         90.5707966        0.239074529        -20.9933115
1.473e+10       0.133872127        -162.924219         4.04067081         85.6905366        0.135821824         90.4195366        0.238352943        -21.2296235
1.4735e+10        0.13479141        -163.411819         4.04022657         85.5027079        0.135867607         90.2682079        0.237630563        -21.4664936
1.474e+10       0.135715802        -163.895488          4.0397754         85.3148108        0.135913168         90.1168108        0.236907393        -21.7039271
1.4745e+10       0.136645229        -164.375281         4.03931728         85.1268456        0.135958505         89.9653456        0.236183441        -21.9419288
1.475e+10       0.137579616         -164.85125         4.03885219         84.9388125        0.136003617         89.8138125        0.235458713        -22.1805039
1.4755e+10       0.138518889        -165.323449         4.03838011         84.7507117        0.136048504         89.6622117        0.234733215        -22.4196575
1.476e+10       0.139462979        -165.791931         4.03790102         84.5625435        0.136093164         89.5105435        0.234006953        -22.6593949
1.4765e+10       0.140411814        -166.256747          4.0374149          84.374308        0.136137596          89.358808        0.233279934        -22.8997213
1.477e+10       0.141365324        -166.717949         4.03692174         84.1860057          0.1361818         89.2070057        0.232552165        -23.1406423
1.4775e+10       0.142323443        -167.175589          4.0364215         83.9976366        0.136225775         89.0551366        0.231823652        -23.3821631
1.478e+10       0.143286103        -167.629718         4.03591419          83.809201        0.136269518          88.903201        0.231094403        -23.6242894
1.4785e+10       0.144253239        -168.080384         4.03539976         83.6206993        0.136313031         88.7511993        0.230364423        -23.8670266
1.479e+10       0.145224785         -168.52764         4.03487822         83.4321316        0.136356311         88.5991316         0.22963372        -24.1103806
1.4795e+10       0.146200679        -168.971532         4.03434953         83.2434982        0.136399358         88.4469982        0.228902302         -24.354357
1.48e+10       0.147180858        -169.412111         4.03381368         83.0547994         0.13644217         88.2947994        0.228170175        -24.5989616
1.4805e+10       0.148165261        -169.849424         4.03327064         82.8660354        0.136484747         88.1425354        0.227437346        -24.8442003
1.481e+10       0.149153828        -170.283519         4.03272041         82.6772064        0.136527088         87.9902064        0.226703823        -25.0900792
1.4815e+10       0.150146499        -170.714443         4.03216297         82.4883128        0.136569192         87.8378128        0.225969614        -25.3366043
1.482e+10       0.151143217        -171.142242         4.03159828         82.2993547        0.136611058         87.6853547        0.225234726        -25.5837817
1.4825e+10       0.152143923        -171.566962         4.03102634         82.1103325        0.136652685         87.5328325        0.224499167        -25.8316176
1.483e+10       0.153148563        -171.988649         4.03044713         81.9212464        0.136694071         87.3802464        0.223762944        -26.0801184
1.4835e+10        0.15415708        -172.407347         4.02986063         81.7320967        0.136735217         87.2275967        0.223026065        -26.3292904
1.484e+10        0.15516942        -172.823099         4.02926682         81.5428836        0.136776121         87.0748836        0.222288539        -26.5791402
1.4845e+10        0.15618553        -173.235951         4.02866569         81.3536074        0.136816782         86.9221074        0.221550374        -26.8296743
1.485e+10       0.157205357        -173.645944         4.02805721         81.1642684        0.136857199         86.7692684        0.220811577        -27.0808993
1.4855e+10        0.15822885        -174.053121         4.02744136         80.9748668        0.136897372         86.6163668        0.220072157        -27.3328221
1.486e+10       0.159255958        -174.457524         4.02681814          80.785403        0.136937299          86.463403        0.219332123        -27.5854495
1.4865e+10        0.16028663        -174.859194         4.02618753         80.5958772        0.136976979         86.3103772        0.218591483        -27.8387883
1.487e+10       0.161320819        -175.258171         4.02554949         80.4062897        0.137016413         86.1572897        0.217850246        -28.0928458
1.4875e+10       0.162358475        -175.654495         4.02490403         80.2166407        0.137055597         86.0041407         0.21710842        -28.3476289
1.488e+10       0.163399551        -176.048207         4.02425112         80.0269305        0.137094533         85.8509305        0.216366015         -28.603145
1.4885e+10          0.164444        -176.439344         4.02359074         79.8371595        0.137133218         85.6976595        0.215623039        -28.8594014
1.489e+10       0.165491776        -176.827946         4.02292288         79.6473278        0.137171652         85.5443278        0.214879502        -29.1164055
1.4895e+10       0.166542834        -177.214049         4.02224752         79.4574358        0.137209834         85.3909358        0.214135413        -29.3741648
1.49e+10        0.16759713        -177.597691         4.02156465         79.2674839        0.137247763         85.2374839        0.213390781        -29.6326871
1.4905e+10        0.16865462        -177.978908         4.02087424         79.0774721        0.137285439         85.0839721        0.212645616          -29.89198
1.491e+10        0.16971526        -178.357737         4.02017629         78.8874009        0.137322859         84.9304009        0.211899928        -30.1520515
1.4915e+10       0.170779008        -178.734213         4.01947077         78.6972706        0.137360024         84.7767706        0.211153726        -30.4129096
1.492e+10       0.171845823        -179.108371         4.01875767         78.5070813        0.137396932         84.6230813         0.21040702        -30.6745623
1.4925e+10       0.172915663        -179.480245         4.01803697         78.3168335        0.137433583         84.4693335        0.209659821        -30.9370178
1.493e+10       0.173988488         -179.84987         4.01730866         78.1265275        0.137469976         84.3155275        0.208912138        -31.2002845
1.4935e+10       0.175064258         179.782723         4.01657272         77.9361634        0.137506109         84.1616634        0.208163982        -31.4643708
1.494e+10       0.176142933         179.417499         4.01582913         77.7457417        0.137541983         84.0077417        0.207415363        -31.7292853
1.4945e+10       0.177224476         179.054426         4.01507789         77.5552625        0.137577595         83.8537625        0.206666293        -31.9950366
1.495e+10       0.178308847         178.693473         4.01431897         77.3647263        0.137612945         83.6997263        0.205916781        -32.2616337
1.4955e+10       0.179396011         178.334608         4.01355236         77.1741333        0.137648033         83.5456333        0.205166839        -32.5290854
1.496e+10       0.180485928         177.977802         4.01277804         76.9834839        0.137682857         83.3914839        0.204416477        -32.7974008
1.4965e+10       0.181578565         177.623022           4.011996         76.7927782        0.137717417         83.2372782        0.203665708        -33.0665891
1.497e+10       0.182673883          177.27024         4.01120623         76.6020167        0.137751711         83.0830167        0.202914542        -33.3366597
1.4975e+10       0.183771848         176.919427         4.01040871         76.4111997        0.137785739         82.9286997         0.20216299         -33.607622
1.498e+10       0.184872426         176.570553         4.00960342         76.2203274          0.1378195         82.7743274        0.201411066        -33.8794856
1.4985e+10       0.185975581          176.22359         4.00879035         76.0294002        0.137852993         82.6199002        0.200658779        -34.1522603
1.499e+10       0.187081281          175.87851         4.00796948         75.8384184        0.137886217         82.4654184        0.199906144        -34.4259559
1.4995e+10       0.188189491         175.535286         4.00714081         75.6473823        0.137919172         82.3108823         0.19915317        -34.7005826
1.5e+10       0.189300178          175.19389         4.00630432         75.4562922        0.137951856         82.1562922        0.198399872        -34.9761504
1.5005e+10       0.190373715         174.904428         4.00571585         75.2707543         0.13798915         82.0027543        0.197697626         -35.271718
1.501e+10       0.191449141         174.616177         4.00512066         75.0851489        0.138026219         81.8491489        0.196995298        -35.5683682
1.5015e+10       0.192526438         174.329121         4.00451872         74.8994762        0.138063063         81.6954762        0.196292904        -35.8661125
1.502e+10       0.193605588         174.043243         4.00391002         74.7137366        0.138099681         81.5417366        0.195590458         -36.164962
1.5025e+10       0.194686574         173.758524         4.00329454         74.5279301        0.138136071         81.3879301        0.194887978        -36.4649281
1.503e+10       0.195769379          173.47495         4.00267226         74.3420571        0.138172234         81.2340571         0.19418548        -36.7660226
1.5035e+10       0.196853986         173.192502         4.00204317         74.1561178        0.138208167         81.0801178         0.19348298        -37.0682571
1.504e+10       0.197940378         172.911166         4.00140725         73.9701124        0.138243871         80.9261124        0.192780495        -37.3716436
1.5045e+10       0.199028538         172.630926         4.00076447         73.7840411        0.138279344         80.7720411        0.192078043         -37.676194
1.505e+10       0.200118449         172.351765         4.00011483         73.5979043        0.138314585         80.6179043        0.191375639        -37.9819205
1.5055e+10       0.201210095         172.073669          3.9994583          73.411702        0.138349593          80.463702        0.190673302        -38.2888355
1.506e+10       0.202303461         171.796622         3.99879487         73.2254347        0.138384369         80.3094347         0.18997105        -38.5969515
1.5065e+10       0.203398529          171.52061         3.99812452         73.0391024        0.138418909         80.1551024        0.189268901        -38.9062812
1.507e+10       0.204495284         171.245619         3.99744724         72.8527055        0.138453215         80.0007055        0.188566872        -39.2168372
1.5075e+10       0.205593711         170.971633           3.996763         72.6662442        0.138487285         79.8462442        0.187864983        -39.5286327
1.508e+10       0.206693792          170.69864         3.99607179         72.4797187        0.138521117         79.6917187        0.187163252        -39.8416807
1.5085e+10       0.207795514         170.426625          3.9953736         72.2931293        0.138554712         79.5371293        0.186461698        -40.1559945
1.509e+10       0.208898861         170.155574          3.9946684         72.1064762        0.138588068         79.3824762        0.185760341        -40.4715876
1.5095e+10       0.210003816         169.885475         3.99395619         71.9197598        0.138621184         79.2277598        0.185059199        -40.7884735
1.51e+10       0.211110366         169.616315         3.99323693         71.7329802         0.13865406         79.0729802        0.184358294        -41.1066662
1.5105e+10       0.212218495         169.348079         3.99251063         71.5461377        0.138686695         78.9181377        0.183657645        -41.4261794
1.511e+10       0.213328188         169.080757         3.99177725         71.3592325        0.138719087         78.7632325        0.182957272        -41.7470275
1.5115e+10        0.21443943         168.814334         3.99103679         71.1722649        0.138751236         78.6082649        0.182257197        -42.0692246
1.512e+10       0.215552208           168.5488         3.99028924         70.9852352        0.138783142         78.4532352         0.18155744        -42.3927852
1.5125e+10       0.216666505         168.284142         3.98953456         70.7981437        0.138814802         78.2981437        0.180858023        -42.7177241
1.513e+10       0.217782309         168.020348         3.98877275         70.6109905        0.138846217         78.1429905        0.180158968        -43.0440559
1.5135e+10       0.218899604         167.757406          3.9880038          70.423776        0.138877385          77.987776        0.179460295        -43.3717958
1.514e+10       0.220018376         167.495305         3.98722768         70.2365004        0.138908306         77.8325004        0.178762029        -43.7009589
1.5145e+10       0.221138611         167.234035         3.98644438         70.0491639        0.138938979         77.6771639         0.17806419        -44.0315606
1.515e+10       0.222260295         166.973583         3.98565388          69.861767        0.138969403          77.521767        0.177366803        -44.3636164
1.5155e+10       0.223383414         166.713938         3.98485618         69.6743097        0.138999577         77.3663097         0.17666989         -44.697142
1.516e+10       0.224507954         166.455091         3.98405125         69.4867924          0.1390295         77.2107924        0.175973475        -45.0321534
1.5165e+10       0.225633901         166.197031         3.98323909         69.2992154        0.139059171         77.0552154        0.175277582        -45.3686668
1.517e+10       0.226761243         165.939747         3.98241967         69.1115789         0.13908859         76.8995789        0.174582235        -45.7066983
1.5175e+10       0.227889964         165.683228         3.98159297         68.9238832        0.139117756         76.7438832        0.173887459        -46.0462645
1.518e+10       0.229020052         165.427466           3.980759         68.7361286        0.139146667         76.5881286        0.173193279         -46.387382
1.5185e+10       0.230151494          165.17245         3.97991772         68.5483154        0.139175324         76.4323154         0.17249972        -46.7300677
1.519e+10       0.231284275          164.91817         3.97906914         68.3604438        0.139203725         76.2764438        0.171806807        -47.0743387
1.5195e+10       0.232418382         164.664618         3.97821322         68.1725141         0.13923187         76.1205141        0.171114568        -47.4202123
1.52e+10       0.233553803         164.411782         3.97734997         67.9845266        0.139259757         75.9645266        0.170423029        -47.7677058
1.5205e+10       0.234690524         164.159655         3.97647936         67.7964816        0.139287385         75.8084816        0.169732215        -48.1168369
1.521e+10       0.235828532         163.908227         3.97560137         67.6083794        0.139314755         75.6523794        0.169042155        -48.4676235
1.5215e+10       0.236967814         163.657489         3.97471601         67.4202202        0.139341865         75.4962202        0.168352877        -48.8200836
1.522e+10       0.238108358         163.407432         3.97382325         67.2320044        0.139368715         75.3400044        0.167664407        -49.1742354
1.5225e+10       0.239250149         163.158049         3.97292307         67.0437322        0.139395303         75.1837322        0.166976775        -49.5300973
1.523e+10       0.240393176         162.909329         3.97201548         66.8554039        0.139421629         75.0274039         0.16629001        -49.8876881
1.5235e+10       0.241537426         162.661265         3.97110044         66.6670199        0.139447691         74.8710199        0.165604141        -50.2470264
1.524e+10       0.242682886         162.413849         3.97017796         66.4785803         0.13947349         74.7145803        0.164919198        -50.6081313
1.5245e+10       0.243829544         162.167072         3.96924801         66.2900856        0.139499025         74.5580856         0.16423521        -50.9710221
1.525e+10       0.244977386         161.920926         3.96831058         66.1015359        0.139524293         74.4015359        0.163552208        -51.3357182
1.5255e+10       0.246126401         161.675404         3.96736566         65.9129317        0.139549296         74.2449317        0.162870224        -51.7022391
1.526e+10       0.247276576         161.430498         3.96641325         65.7242732        0.139574032         74.0882732        0.162189289        -52.0706048
1.5265e+10       0.248427898         161.186199         3.96545331         65.5355606          0.1395985         73.9315606        0.161509435        -52.4408351
1.527e+10       0.249580355         160.942502         3.96448585         65.3467944          0.1396227         73.7747944        0.160830694        -52.8129504
1.5275e+10       0.250733935         160.699398         3.96351085         65.1579748         0.13964663         73.6179748          0.1601531         -53.186971
1.528e+10       0.251888626         160.456879          3.9625283          64.969102         0.13967029          73.461102        0.159476684        -53.5629174
1.5285e+10       0.253044415          160.21494         3.96153818         64.7801765         0.13969368         73.3041765        0.158801483        -53.9408106
1.529e+10       0.254201291         159.973572         3.96054049         64.5911986        0.139716798         73.1471986        0.158127529        -54.3206714
1.5295e+10       0.255359241         159.732769         3.95953521         64.4021684        0.139739644         72.9901684        0.157454858        -54.7025211
1.53e+10       0.256518252         159.492525         3.95852233         64.2130864        0.139762216         72.8330864        0.156783505        -55.0863809
1.5305e+10       0.257678314         159.252831         3.95750185         64.0239529        0.139784515         72.6759529        0.156113506        -55.4722725
1.531e+10       0.258839414         159.013682         3.95647373         63.8347681         0.13980654         72.5187681        0.155444897        -55.8602175
1.5315e+10        0.26000154         158.775071         3.95543799         63.6455324        0.139828289         72.3615324        0.154777716        -56.2502379
1.532e+10        0.26116468         158.536992          3.9543946         63.4562461        0.139849762         72.2042461        0.154111999        -56.6423557
1.5325e+10       0.262328822         158.299439         3.95334356         63.2669095        0.139870958         72.0469095        0.153447785        -57.0365932
1.533e+10       0.263493955         158.062404         3.95228485          63.077523        0.139891877          71.889523        0.152785113        -57.4329728
1.5335e+10       0.264660066         157.825883         3.95121846         62.8880868        0.139912518         71.7320868        0.152124021        -57.8315171
1.534e+10       0.265827145         157.589869         3.95014439         62.6986013        0.139932879         71.5746013        0.151464549        -58.2322488
1.5345e+10       0.266995178         157.354356         3.94906261         62.5090668        0.139952962         71.4170668        0.150806737        -58.6351909
1.535e+10       0.268164155         157.119338         3.94797313         62.3194837        0.139972764         71.2594837        0.150150627        -59.0403664
1.5355e+10       0.269334064         156.884809         3.94687594         62.1298521        0.139992284         71.1018521        0.149496259        -59.4477986
1.536e+10       0.270504894         156.650765         3.94577101         61.9401726        0.140011524         70.9441726        0.148843676        -59.8575107
1.5365e+10       0.271676632         156.417199         3.94465835         61.7504454         0.14003048         70.7864454        0.148192921        -60.2695264
1.537e+10       0.272849266         156.184105         3.94353794         61.5606708        0.140049154         70.6286708        0.147544036        -60.6838691
1.5375e+10       0.274022787         155.951479         3.94240977         61.3708492        0.140067544         70.4708492        0.146897065        -61.1005627
1.538e+10       0.275197181         155.719315         3.94127384         61.1809808        0.140085649         70.3129808        0.146252053        -61.5196311
1.5385e+10       0.276372438         155.487607         3.94013013         60.9910662         0.14010347         70.1550662        0.145609046        -61.9410982
1.539e+10       0.277548546         155.256351         3.93897864         60.8011054        0.140121004         69.9971054        0.144968087        -62.3649881
1.5395e+10       0.278725494         155.025542         3.93781935          60.611099        0.140138252          69.839099        0.144329225        -62.7913249
1.54e+10        0.27990327         154.795174         3.93665227         60.4210472        0.140155213         69.6810472        0.143692506         -63.220133
1.5405e+10       0.281081862         154.565242         3.93547737         60.2309505        0.140171886         69.5229505        0.143057977        -63.6514367
1.541e+10       0.282261261         154.335742         3.93429465          60.040809         0.14018827          69.364809        0.142425687        -64.0852603
1.5415e+10       0.283441453         154.106669         3.93310411         59.8506232        0.140204365         69.2066232        0.141795686        -64.5216283
1.542e+10       0.284622428         153.878018         3.93190573         59.6603934        0.140220171         69.0483934        0.141168021        -64.9605653
1.5425e+10       0.285804175         153.649785          3.9306995         59.4701199        0.140235686         68.8901199        0.140542745        -65.4020958
1.543e+10       0.286986682         153.421964         3.92948543         59.2798032         0.14025091         68.7318032        0.139919908        -65.8462443
1.5435e+10       0.288169939         153.194552          3.9282635         59.0894435        0.140265843         68.5734435        0.139299561        -66.2930353
1.544e+10       0.289353933         152.967544          3.9270337         58.8990411        0.140280483         68.4150411        0.138681758        -66.7424935
1.5445e+10       0.290538654         152.740935         3.92579603         58.7085966         0.14029483         68.2565966        0.138066551        -67.1946434
1.545e+10        0.29172409         152.514721         3.92455048         58.5181101        0.140308884         68.0981101        0.137453993        -67.6495095
1.5455e+10       0.292910231         152.288899         3.92329704          58.327582        0.140322643          67.939582        0.136844141        -68.1071162
1.546e+10       0.294097064         152.063463          3.9220357         58.1370127        0.140336108         67.7810127        0.136237047        -68.5674879
1.5465e+10        0.29528458         151.838409         3.92076646         57.9464026        0.140349278         67.6224026         0.13563277         -69.030649
1.547e+10       0.296472767         151.613735         3.91948932          57.755752        0.140362151          67.463752        0.135031365        -69.4966236
1.5475e+10       0.297661614         151.389434         3.91820426         57.5650612        0.140374728         67.3050612        0.134432889        -69.9654358
1.548e+10        0.29885111         151.165505         3.91691128         57.3743307        0.140387008         67.1463307        0.133837402        -70.4371095
1.5485e+10       0.300041243         150.941942         3.91561038         57.1835607         0.14039899         66.9875607         0.13324496        -70.9116687
1.549e+10       0.301232003         150.718742         3.91430154         56.9927517        0.140410674         66.8287517        0.132655625        -71.3891368
1.5495e+10       0.302423379         150.495901         3.91298477          56.801904        0.140422059          66.669904        0.132069457        -71.8695372
1.55e+10        0.30361536         150.273415         3.91166005         56.6110179        0.140433144         66.5110179        0.131486516        -72.3528932
1.5505e+10       0.304807934         150.051281         3.91032738         56.4200938         0.14044393         66.3520938        0.130906864        -72.8392278
1.551e+10       0.306001092         149.829495         3.90898676         56.2291321        0.140454415         66.1931321        0.130330564        -73.3285634
1.5515e+10       0.307194821         149.608054         3.90763818         56.0381332        0.140464599         66.0341332        0.129757679        -73.8209227
1.552e+10        0.30838911         149.386953         3.90628163         55.8470974        0.140474481         65.8750974        0.129188273        -74.3163275
1.5525e+10        0.30958395          149.16619         3.90491712          55.656025        0.140484061          65.716025         0.12862241        -74.8147997
1.553e+10       0.310779329         148.945762         3.90354463         55.4649166        0.140493338         65.5569166        0.128060156        -75.3163605
1.5535e+10       0.311975236         148.725664         3.90216417         55.2737723        0.140502313         65.3977723        0.127501577        -75.8210308
1.554e+10       0.313171661         148.505893         3.90077572         55.0825927        0.140510983         65.2385927         0.12694674        -76.3288312
1.5545e+10       0.314368592         148.286447         3.89937929          54.891378        0.140519349          65.079378        0.126395713        -76.8397817
1.555e+10       0.315566018         148.067321         3.89797487         54.7001286        0.140527411         64.9201286        0.125848563        -77.3539018
1.5555e+10       0.316763929         147.848514         3.89656245          54.508845        0.140535167          64.760845        0.125305359        -77.8712105
1.556e+10       0.317962314         147.630021         3.89514204         54.3175275        0.140542617         64.6015275        0.124766172        -78.3917263
1.5565e+10       0.319161162          147.41184         3.89371363         54.1261764        0.140549761         64.4421764        0.124231072         -78.915467
1.557e+10       0.320360462         147.193967         3.89227721         53.9347922        0.140556599         64.2827922        0.123700129        -79.4424498
1.5575e+10       0.321560204           146.9764         3.89083279         53.7433752        0.140563129         64.1233752        0.123173415        -79.9726912
1.558e+10       0.322760376         146.759135         3.88938036         53.5519258        0.140569351         63.9639258        0.122651002        -80.5062072
1.5585e+10       0.323960969          146.54217         3.88791991         53.3604444        0.140575265         63.8044444        0.122132965        -81.0430128
1.559e+10        0.32516197         146.325503         3.88645145         53.1689313        0.140580871         63.6449313        0.121619375        -81.5831224
1.5595e+10        0.32636337         146.109129         3.88497498          52.977387        0.140586167          63.485387        0.121110307        -82.1265494
1.56e+10       0.327565158         145.893046         3.88349049         52.7858119        0.140591154         63.3258119        0.120605837        -82.6733066
1.5605e+10       0.328767323         145.677252         3.88199797         52.5942062        0.140595831         63.1662062        0.120106038        -83.2234055
1.561e+10       0.329969853         145.461743         3.88049744         52.4025705        0.140600197         63.0065705        0.119610989        -83.7768572
1.5615e+10        0.33117274         145.246518         3.87898887          52.210905        0.140604253          62.846905        0.119120764        -84.3336713
1.562e+10       0.332375971         145.031574         3.87747229         52.0192103        0.140607997         62.6872103         0.11863544        -84.8938567
1.5625e+10       0.333579537         144.816907         3.87594768         51.8274866        0.140611429         62.5274866        0.118155096        -85.4574211
1.563e+10       0.334783426         144.602516         3.87441503         51.6357343         0.14061455         62.3677343        0.117679809        -86.0243711
1.5635e+10       0.335987628         144.388397         3.87287436          51.443954        0.140617357          62.207954        0.117209658        -86.5947121
1.564e+10       0.337192132         144.174549         3.87132567         51.2521458        0.140619852         62.0481458        0.116744722        -87.1684485
1.5645e+10       0.338396928         143.960969         3.86976894         51.0603103        0.140622033         61.8883103        0.116285079        -87.7455832
1.565e+10       0.339602005         143.747655         3.86820418         50.8684478        0.140623901         61.7284478        0.115830809        -88.3261179
1.5655e+10       0.340807352         143.534603         3.86663139         50.6765588        0.140625455         61.5685588        0.115381993        -88.9100531
1.566e+10       0.342012959         143.321813         3.86505057         50.4846435        0.140626694         61.4086435        0.114938711        -89.4973875
1.5665e+10       0.343218815         143.109281         3.86346172         50.2927025        0.140627618         61.2487025        0.114501042         -90.088119
1.567e+10        0.34442491         142.897005         3.86186484         50.1007361        0.140628226         61.0887361        0.114069069        -90.6822434
1.5675e+10       0.345631233         142.684983         3.86025993         49.9087446         0.14062852         60.9287446        0.113642871        -91.2797553
1.568e+10       0.346837773         142.473213         3.85864699         49.7167286        0.140628497         60.7687286        0.113222531        -91.8806478
1.5685e+10       0.348044521         142.261693         3.85702603         49.5246884        0.140628158         60.6086884        0.112808128        -92.4849122
1.569e+10       0.349251465          142.05042         3.85539704         49.3326244        0.140627502         60.4486244        0.112399745        -93.0925383
1.5695e+10       0.350458594         141.839393         3.85376002         49.1405371        0.140626529         60.2885371        0.111997464         -93.703514
1.57e+10       0.351665899         141.628609         3.85211498         48.9484267        0.140625239         60.1284267        0.111601364        -94.3178256
1.5705e+10       0.352873369         141.418066         3.85046192         48.7562937        0.140623631         59.9682937        0.111211528        -94.9354576
1.571e+10       0.354080994         141.207763         3.84880083         48.5641386        0.140621705         59.8081386        0.110828037        -95.5563927
1.5715e+10       0.355288762         140.997696         3.84713173         48.3719617        0.140619461         59.6479617        0.110450973        -96.1806117
1.572e+10       0.356496663         140.787865         3.84545462         48.1797634        0.140616899         59.4877634        0.110080414        -96.8080934
1.5725e+10       0.357704688         140.578267         3.84376949         47.9875442        0.140614017         59.3275442        0.109716444        -97.4388149
1.573e+10       0.358912825         140.368901         3.84207635         47.7953044        0.140610817         59.1673044        0.109359141        -98.0727512
1.5735e+10       0.360121065         140.159764          3.8403752         47.6030444        0.140607296         59.0070444        0.109008586        -98.7098751
1.574e+10       0.361329396         139.950855         3.83866604         47.4107647        0.140603457         58.8467647        0.108664858        -99.3501577
1.5745e+10       0.362537808         139.742172         3.83694889         47.2184657        0.140599297         58.6864657        0.108328036        -99.9935679
1.575e+10       0.363746291         139.533712         3.83522373         47.0261478        0.140594816         58.5261478          0.1079982        -100.640072
1.5755e+10       0.364954834         139.325475         3.83349058         46.8338113        0.140590016         58.3658113        0.107675426        -101.289636
1.576e+10       0.366163428         139.117458         3.83174944         46.6414568        0.140584894         58.2054568        0.107359792        -101.942221
1.5765e+10       0.367372061         138.909661         3.83000031         46.4490845        0.140579452         58.0450845        0.107051375        -102.597787
1.577e+10       0.368580724          138.70208         3.82824319          46.256695        0.140573688          57.884695         0.10675025        -103.256294
1.5775e+10       0.369789406         138.494714          3.8264781         46.0642886        0.140567603         57.7242886        0.106456493        -103.917697
1.578e+10       0.370998096         138.287563         3.82470503         45.8718658        0.140561196         57.5638658        0.106170177        -104.581949
1.5785e+10       0.372206785         138.080623         3.82292399          45.679427        0.140554467          57.403427        0.105891376        -105.249003
1.579e+10       0.373415462         137.873894         3.82113499         45.4869725        0.140547416         57.2429725        0.105620162        -105.918807
1.5795e+10       0.374624116         137.667374         3.81933802         45.2945028        0.140540043         57.0825028        0.105356605         -106.59131
1.58e+10       0.375832738         137.461061          3.8175331         45.1020184        0.140532347         56.9220184        0.105100775        -107.266455
1.5805e+10       0.377041317         137.254954         3.81572023         44.9095195        0.140524329         56.7615195        0.104852741        -107.944186
1.581e+10       0.378249844         137.049051         3.81389942         44.7170068        0.140515987         56.6010068         0.10461257        -108.624442
1.5815e+10       0.379458306         136.843352         3.81207066         44.5244805        0.140507323         56.4404805        0.104380328        -109.307164
1.582e+10       0.380666696         136.637853         3.81023398         44.3319411        0.140498335         56.2799411        0.104156079        -109.992286
1.5825e+10       0.381875001         136.432554         3.80838936          44.139389        0.140489024          56.119389        0.103939887        -110.679743
1.583e+10       0.383083213         136.227454         3.80653683         43.9468246        0.140479389         55.9588246        0.103731812        -111.369467
1.5835e+10        0.38429132         136.022551         3.80467638         43.7542484         0.14046943         55.7982484        0.103531914        -112.061387
1.584e+10       0.385499313         135.817843         3.80280802         43.5616608        0.140459148         55.6376608        0.103340251        -112.755432
1.5845e+10       0.386707182          135.61333         3.80093176         43.3690622        0.140448541         55.4770622         0.10315688        -113.451528
1.585e+10       0.387914916         135.409009         3.79904761         43.1764529        0.140437611         55.3164529        0.102981855        -114.149598
1.5855e+10       0.389122505          135.20488         3.79715558         42.9838336        0.140426356         55.1558336        0.102815229        -114.849565
1.586e+10       0.390329939         135.000942         3.79525566         42.7912044        0.140414777         54.9952044        0.102657051        -115.551349
1.5865e+10       0.391537208         134.797192         3.79334787          42.598566        0.140402874          54.834566        0.102507372        -116.254868
1.587e+10       0.392744302          134.59363         3.79143222         42.4059187        0.140390645         54.6739187        0.102366236        -116.960038
1.5875e+10       0.393951211         134.390254         3.78950871         42.2132629        0.140378093         54.5132629        0.102233689        -117.666776
1.588e+10       0.395157924         134.187064         3.78757736         42.0205991        0.140365215         54.3525991        0.102109773        -118.374994
1.5885e+10       0.396364432         133.984058         3.78563816         41.8279277        0.140352013         54.1919277        0.101994527        -119.084605
1.589e+10       0.397570725         133.781234         3.78369114          41.635249        0.140338486          54.031249        0.101887991        -119.795519
1.5895e+10       0.398776792         133.578592         3.78173629         41.4425637        0.140324633         53.8705637        0.101790198        -120.507645
1.59e+10       0.399982624         133.376131         3.77977363          41.249872        0.140310456          53.709872        0.101701183        -121.220891
1.5905e+10        0.40118821         133.173849         3.77780316         41.0571744        0.140295954         53.5491744        0.101620976        -121.935163
1.591e+10       0.402393541         132.971744          3.7758249         40.8644713        0.140281127         53.3884713        0.101549604        -122.650369
1.5915e+10       0.403598607         132.769817         3.77383886         40.6717631        0.140265974         53.2277631        0.101487095        -123.366411
1.592e+10       0.404803397         132.568066         3.77184504         40.4790504        0.140250496         53.0670504        0.101433471        -124.083194
1.5925e+10       0.406007902          132.36649         3.76984345         40.2863334        0.140234694         52.9063334        0.101388754         -124.80062
1.593e+10       0.407212112         132.165088         3.76783411         40.0936127        0.140218565         52.7456127        0.101352961        -125.518593
1.5935e+10       0.408416017         131.963858         3.76581702         39.9008887        0.140202112         52.5848887        0.101326107        -126.237013
1.594e+10       0.409619607           131.7628         3.76379219         39.7081618        0.140185334         52.4241618        0.101308207        -126.955782
1.5945e+10       0.410822872         131.561912         3.76175964         39.5154323         0.14016823         52.2634323         0.10129927        -127.674801
1.595e+10       0.412025803         131.361195         3.75971937         39.3227009        0.140150801         52.1027009        0.101299305         -128.39397
1.5955e+10       0.413228389         131.160646          3.7576714         39.1299678        0.140133047         51.9419678        0.101308317        -129.113189
1.596e+10        0.41443062         130.960264         3.75561574         38.9372336        0.140114967         51.7812336        0.101326307        -129.832359
1.5965e+10       0.415632488          130.76005          3.7535524         38.7444986        0.140096563         51.6204986        0.101353277         -130.55138
1.597e+10       0.416833982         130.560001         3.75148139         38.5517633        0.140077833         51.4597633        0.101389223        -131.270153
1.5975e+10       0.418035092         130.360117         3.74940272         38.3590281        0.140058779         51.2990281        0.101434141        -131.988578
1.598e+10       0.419235809         130.160397          3.7473164         38.1662935        0.140039399         51.1382935        0.101488021        -132.706557
1.5985e+10       0.420436123          129.96084         3.74522244         37.9735598        0.140019695         50.9775598        0.101550854         -133.42399
1.599e+10       0.421636024         129.761445         3.74312087         37.7808275        0.139999665         50.8168275        0.101622627        -134.140781
1.5995e+10       0.422835503         129.562211         3.74101168         37.5880971        0.139979311         50.6560971        0.101703324        -134.856831
1.6e+10        0.42403455         129.363138          3.7388949          37.395369        0.139958633          50.495369        0.101792926        -135.572046
! Noise params
1.4e+10               0.4        0.340258757        -36.4737389        0.238665128
1.4005e+10          0.400225        0.339816218        -36.3809015        0.238776751
1.401e+10           0.40045        0.339372671        -36.2881987        0.238886562
1.4015e+10          0.400675        0.338928118        -36.1956317        0.238994558
1.402e+10            0.4009        0.338482558        -36.1032014        0.239100733
1.4025e+10          0.401125        0.338035992         -36.010909        0.239205082
1.403e+10           0.40135        0.337588419        -35.9187556        0.239307602
1.4035e+10          0.401575        0.337139839        -35.8267423        0.239408286
1.404e+10            0.4018        0.336690254        -35.7348703        0.239507132
1.4045e+10          0.402025        0.336239662        -35.6431407        0.239604133
1.405e+10           0.40225        0.335788065        -35.5515545        0.239699287
1.4055e+10          0.402475        0.335335461        -35.4601131        0.239792588
1.406e+10            0.4027        0.334881853        -35.3688175        0.239884032
1.4065e+10          0.402925        0.334427239         -35.277669        0.239973615
1.407e+10           0.40315         0.33397162        -35.1866687        0.240061333
1.4075e+10          0.403375        0.333514996        -35.0958178        0.240147181
1.408e+10            0.4036        0.333057368        -35.0051176        0.240231156
1.4085e+10          0.403825        0.332598736        -34.9145692        0.240313253
1.409e+10           0.40405          0.3321391        -34.8241739        0.240393469
1.4095e+10          0.404275         0.33167846         -34.733933          0.2404718
1.41e+10            0.4045        0.331216818        -34.6438477        0.240548241
1.4105e+10          0.404725        0.330754172        -34.5539192        0.240622789
1.411e+10           0.40495        0.330290524        -34.4641489         0.24069544
1.4115e+10          0.405175        0.329825875        -34.3745381        0.240766191
1.412e+10            0.4054        0.329360223        -34.2850879        0.240835038
1.4125e+10          0.405625        0.328893571        -34.1957999        0.240901978
1.413e+10           0.40585        0.328425918        -34.1066752        0.240967007
1.4135e+10          0.406075        0.327957265        -34.0177152        0.241030121
1.414e+10            0.4063        0.327487613        -33.9289213        0.241091318
1.4145e+10          0.406525        0.327016961        -33.8402948        0.241150594
1.415e+10           0.40675        0.326545311        -33.7518372        0.241207946
1.4155e+10          0.406975        0.326072663        -33.6635497        0.241263371
1.416e+10            0.4072        0.325599018        -33.5754339        0.241316866
1.4165e+10          0.407425        0.325124376         -33.487491        0.241368427
1.417e+10           0.40765        0.324648738        -33.3997226        0.241418052
1.4175e+10          0.407875        0.324172104        -33.3121301        0.241465738
1.418e+10            0.4081        0.323694476        -33.2247149        0.241511483
1.4185e+10          0.408325        0.323215854        -33.1374785        0.241555283
1.419e+10           0.40855        0.322736238        -33.0504224        0.241597136
1.4195e+10          0.408775         0.32225563         -32.963548        0.241637039
1.42e+10             0.409        0.321774031         -32.876857        0.241674991
1.4205e+10          0.409225         0.32129144        -32.7903507        0.241710987
1.421e+10           0.40945        0.320807859        -32.7040307        0.241745027
1.4215e+10          0.409675        0.320323289        -32.6178987        0.241777107
1.422e+10            0.4099        0.319837731        -32.5319561        0.241807227
1.4225e+10          0.410125        0.319351185        -32.4462045        0.241835382
1.423e+10           0.41035        0.318863652        -32.3606455        0.241861572
1.4235e+10          0.410575        0.318375134        -32.2752808        0.241885794
1.424e+10            0.4108        0.317885632        -32.1901119        0.241908047
1.4245e+10          0.411025        0.317395145        -32.1051404        0.241928329
1.425e+10           0.41125        0.316903676        -32.0203682        0.241946637
1.4255e+10          0.411475        0.316411226        -31.9357967        0.241962971
1.426e+10            0.4117        0.315917795        -31.8514277        0.241977328
1.4265e+10          0.411925        0.315423385        -31.7672629        0.241989708
1.427e+10           0.41215        0.314927997         -31.683304        0.242000108
1.4275e+10          0.412375        0.314431631        -31.5995528        0.242008527
1.428e+10            0.4126         0.31393429        -31.5160109        0.242014964
1.4285e+10          0.412825        0.313435974        -31.4326802        0.242019418
1.429e+10           0.41305        0.312936685        -31.3495624        0.242021888
1.4295e+10          0.413275        0.312436423        -31.2666593        0.242022372
1.43e+10            0.4135        0.311935191        -31.1839728         0.24202087
1.4305e+10          0.413725         0.31143299        -31.1015046         0.24201738
1.431e+10           0.41395         0.31092982        -31.0192567        0.242011902
1.4315e+10          0.414175        0.310425684        -30.9372308        0.242004435
1.432e+10            0.4144        0.309920583        -30.8554289        0.241994979
1.4325e+10          0.414625        0.309414517        -30.7738529        0.241983532
1.433e+10           0.41485         0.30890749        -30.6925047        0.241970094
1.4335e+10          0.415075        0.308399502        -30.6113862        0.241954666
1.434e+10            0.4153        0.307890555        -30.5304994        0.241937246
1.4345e+10          0.415525         0.30738065        -30.4498462        0.241917834
1.435e+10           0.41575        0.306869789        -30.3694287         0.24189643
1.4355e+10          0.415975        0.306357975        -30.2892488        0.241873034
1.436e+10            0.4162        0.305845207        -30.2093087        0.241847646
1.4365e+10          0.416425        0.305331489        -30.1296103        0.241820266
1.437e+10           0.41665        0.304816822        -30.0501557        0.241790895
1.4375e+10          0.416875        0.304301207         -29.970947        0.241759531
1.438e+10            0.4171        0.303784648        -29.8919863        0.241726177
1.4385e+10          0.417325        0.303267144        -29.8132757        0.241690831
1.439e+10           0.41755        0.302748699        -29.7348175        0.241653495
1.4395e+10          0.417775        0.302229315        -29.6566137        0.241614169
1.44e+10             0.418        0.301708993        -29.5786666        0.241572854
1.4405e+10          0.418225        0.301187735        -29.5009784        0.241529551
1.441e+10           0.41845        0.300665544        -29.4235512         0.24148426
1.4415e+10          0.418675        0.300142421        -29.3463874        0.241436982
1.442e+10            0.4189        0.299618369        -29.2694893        0.241387719
1.4425e+10          0.419125         0.29909339         -29.192859         0.24133647
1.443e+10           0.41935        0.298567486        -29.1164991        0.241283239
1.4435e+10          0.419575         0.29804066        -29.0404117        0.241228025
1.444e+10            0.4198        0.297512913        -28.9645993         0.24117083
1.4445e+10          0.420025        0.296984248        -28.8890643        0.241111656
1.445e+10           0.42025        0.296454668         -28.813809        0.241050503
1.4455e+10          0.420475        0.295924175        -28.7388359        0.240987375
1.446e+10            0.4207        0.295392771        -28.6641475        0.240922271
1.4465e+10          0.420925        0.294860459        -28.5897463        0.240855195
1.447e+10           0.42115        0.294327242        -28.5156347        0.240786147
1.4475e+10          0.421375        0.293793122        -28.4418152        0.240715131
1.448e+10            0.4216        0.293258101        -28.3682906        0.240642147
1.4485e+10          0.421825        0.292722183        -28.2950632        0.240567198
1.449e+10           0.42205         0.29218537        -28.2221357        0.240490287
1.4495e+10          0.422275        0.291647666        -28.1495109        0.240411415
1.45e+10            0.4225        0.291109072        -28.0771912        0.240330584
1.4505e+10          0.422725        0.290569592        -28.0051794        0.240247798
1.451e+10           0.42295        0.290029229        -27.9334783        0.240163059
1.4515e+10          0.423175        0.289487986        -27.8620904         0.24007637
1.452e+10            0.4234        0.288945865        -27.7910187        0.239987733
1.4525e+10          0.423625        0.288402871        -27.7202659        0.239897151
1.453e+10           0.42385        0.287859005        -27.6498348        0.239804626
1.4535e+10          0.424075        0.287314272        -27.5797282        0.239710163
1.454e+10            0.4243        0.286768674        -27.5099491        0.239613764
1.4545e+10          0.424525        0.286222216        -27.4405003        0.239515432
1.455e+10           0.42475        0.285674899        -27.3713848         0.23941517
1.4555e+10          0.424975        0.285126729        -27.3026054        0.239312983
1.456e+10            0.4252        0.284577707        -27.2341653        0.239208872
1.4565e+10          0.425425        0.284027838        -27.1660674        0.239102843
1.457e+10           0.42565        0.283477125        -27.0983147        0.238994897
1.4575e+10          0.425875        0.282925573        -27.0309104         0.23888504
1.458e+10            0.4261        0.282373184        -26.9638576        0.238773275
1.4585e+10          0.426325        0.281819962        -26.8971593        0.238659605
1.459e+10           0.42655        0.281265912        -26.8308188        0.238544035
1.4595e+10          0.426775        0.280711037        -26.7648392        0.238426569
1.46e+10             0.427        0.280155341        -26.6992238         0.23830721
1.4605e+10          0.427225        0.279598828        -26.6339758        0.238185964
1.461e+10           0.42745        0.279041502        -26.5690986        0.238062834
1.4615e+10          0.427675        0.278483368        -26.5045955        0.237937825
1.462e+10            0.4279        0.277924429        -26.4404698        0.237810942
1.4625e+10          0.428125         0.27736469        -26.3767249        0.237682188
1.463e+10           0.42835        0.276804155        -26.3133642        0.237551569
1.4635e+10          0.428575        0.276242829        -26.2503913        0.237419089
1.464e+10            0.4288        0.275680716        -26.1878096        0.237284753
1.4645e+10          0.429025         0.27511782        -26.1256226        0.237148566
1.465e+10           0.42925        0.274554147        -26.0638339        0.237010533
1.4655e+10          0.429475          0.2739897        -26.0024472         0.23687066
1.466e+10            0.4297        0.273424485         -25.941466         0.23672895
1.4665e+10          0.429925        0.272858507         -25.880894        0.236585411
1.467e+10           0.43015         0.27229177        -25.8207349        0.236440046
1.4675e+10          0.430375        0.271724279        -25.7609925        0.236292862
1.468e+10            0.4306         0.27115604        -25.7016706        0.236143864
1.4685e+10          0.430825        0.270587057        -25.6427729        0.235993057
1.469e+10           0.43105        0.270017336        -25.5843034        0.235840447
1.4695e+10          0.431275        0.269446882        -25.5262659        0.235686041
1.47e+10            0.4315          0.2688757        -25.4686645        0.235529844
1.4705e+10          0.431725        0.268303796        -25.4115029        0.235371861
1.471e+10           0.43195        0.267731176        -25.3547854        0.235212099
1.4715e+10          0.432175        0.267157844        -25.2985159        0.235050565
1.472e+10            0.4324        0.266583807        -25.2426985        0.234887263
1.4725e+10          0.432625        0.266009071        -25.1873374        0.234722202
1.473e+10           0.43285         0.26543364        -25.1324367        0.234555386
1.4735e+10          0.433075        0.264857522        -25.0780007        0.234386822
1.474e+10            0.4333        0.264280722        -25.0240337        0.234216518
1.4745e+10          0.433525        0.263703246        -24.9705398        0.234044478
1.475e+10           0.43375        0.263125101        -24.9175236        0.233870712
1.4755e+10          0.433975        0.262546293        -24.8649894        0.233695224
1.476e+10            0.4342        0.261966828        -24.8129415        0.233518022
1.4765e+10          0.434425        0.261386713        -24.7613846        0.233339113
1.477e+10           0.43465        0.260805954        -24.7103231        0.233158505
1.4775e+10          0.434875        0.260224558        -24.6597616        0.232976203
1.478e+10            0.4351        0.259642531        -24.6097047        0.232792215
1.4785e+10          0.435325        0.259059881        -24.5601571        0.232606549
1.479e+10           0.43555        0.258476615        -24.5111235        0.232419212
1.4795e+10          0.435775         0.25789274        -24.4626087        0.232230211
1.48e+10             0.436        0.257308262        -24.4146173        0.232039554
1.4805e+10          0.436225        0.256723189        -24.3671544        0.231847248
1.481e+10           0.43645        0.256137529        -24.3202248        0.231653302
1.4815e+10          0.436675        0.255551288        -24.2738334        0.231457723
1.482e+10            0.4369        0.254964476        -24.2279853        0.231260518
1.4825e+10          0.437125        0.254377098        -24.1826855        0.231061696
1.483e+10           0.43735        0.253789163         -24.137939        0.230861264
1.4835e+10          0.437575        0.253200679        -24.0937512        0.230659231
1.484e+10            0.4378        0.252611655         -24.050127        0.230455605
1.4845e+10          0.438025        0.252022097        -24.0070719        0.230250394
1.485e+10           0.43825        0.251432015         -23.964591        0.230043607
1.4855e+10          0.438475        0.250841416        -23.9226898        0.229835251
1.486e+10            0.4387         0.25025031        -23.8813737        0.229625335
1.4865e+10          0.438925        0.249658704        -23.8406481        0.229413868
1.487e+10           0.43915        0.249066608        -23.8005186        0.229200859
1.4875e+10          0.439375        0.248474031        -23.7609907        0.228986315
1.488e+10            0.4396        0.247880981          -23.72207        0.228770246
1.4885e+10          0.439825        0.247287467        -23.6837623         0.22855266
1.489e+10           0.44005          0.2466935        -23.6460732        0.228333567
1.4895e+10          0.440275        0.246099087        -23.6090087        0.228112975
1.49e+10            0.4405        0.245504239        -23.5725744        0.227890894
1.4905e+10          0.440725        0.244908965        -23.5367763        0.227667332
1.491e+10           0.44095        0.244313276        -23.5016205        0.227442298
1.4915e+10          0.441175         0.24371718        -23.4671129        0.227215802
1.492e+10            0.4414        0.243120689        -23.4332595        0.226987854
1.4925e+10          0.441625        0.242523811        -23.4000667        0.226758462
1.493e+10           0.44185        0.241926558        -23.3675405        0.226527636
1.4935e+10          0.442075         0.24132894        -23.3356872        0.226295386
1.494e+10            0.4423        0.240730968        -23.3045131        0.226061721
1.4945e+10          0.442525        0.240132652        -23.2740247         0.22582665
1.495e+10           0.44275        0.239534003        -23.2442284        0.225590184
1.4955e+10          0.442975        0.238935032        -23.2151307        0.225352332
1.496e+10            0.4432        0.238335751        -23.1867381        0.225113104
1.4965e+10          0.443425        0.237736171        -23.1590574        0.224872509
1.497e+10           0.44365        0.237136304        -23.1320951        0.224630559
1.4975e+10          0.443875         0.23653616        -23.1058581        0.224387263
1.498e+10            0.4441        0.235935753        -23.0803532        0.224142631
1.4985e+10          0.444325        0.235335093        -23.0555873        0.223896673
1.499e+10           0.44455        0.234734194        -23.0315674        0.223649399
1.4995e+10          0.444775        0.234133067        -23.0083005         0.22340082
1.5e+10             0.445        0.233531725        -22.9857936        0.223150946
1.5005e+10          0.445225        0.232930181        -22.9640539        0.222899787
1.501e+10           0.44545        0.232328448        -22.9430887        0.222647354
1.5015e+10          0.445675        0.231726538        -22.9229053        0.222393658
1.502e+10            0.4459        0.231124465         -22.903511        0.222138708
1.5025e+10          0.446125        0.230522242        -22.8849132        0.221882516
1.503e+10           0.44635        0.229919883        -22.8671194        0.221625092
1.5035e+10          0.446575        0.229317402        -22.8501373        0.221366447
1.504e+10            0.4468        0.228714812        -22.8339744        0.221106592
1.5045e+10          0.447025        0.228112128        -22.8186385        0.220845538
1.505e+10           0.44725        0.227509364        -22.8041373        0.220583295
1.5055e+10          0.447475        0.226906534        -22.7904787        0.220319874
1.506e+10            0.4477        0.226303654        -22.7776706        0.220055287
1.5065e+10          0.447925        0.225700738         -22.765721        0.219789545
1.507e+10           0.44815        0.225097801         -22.754638        0.219522658
1.5075e+10          0.448375        0.224494859        -22.7444296        0.219254638
1.508e+10            0.4486        0.223891927        -22.7351042        0.218985496
1.5085e+10          0.448825        0.223289022        -22.7266699        0.218715243
1.509e+10           0.44905        0.222686158        -22.7191351        0.218443891
1.5095e+10          0.449275        0.222083353        -22.7125083        0.218171451
1.51e+10            0.4495        0.221480622         -22.706798        0.217897934
1.5105e+10          0.449725        0.220877982        -22.7020126        0.217623352
1.511e+10           0.44995        0.220275451        -22.6981609        0.217347716
1.5115e+10          0.450175        0.219673044        -22.6952516        0.217071038
1.512e+10            0.4504        0.219070781        -22.6932935        0.216793329
1.5125e+10          0.450625        0.218468677        -22.6922954        0.216514602
1.513e+10           0.45085        0.217866751        -22.6922663        0.216234867
1.5135e+10          0.451075        0.217265021        -22.6932151        0.215954137
1.514e+10            0.4513        0.216663505         -22.695151        0.215672422
1.5145e+10          0.451525        0.216062222        -22.6980832        0.215389736
1.515e+10           0.45175         0.21546119        -22.7020208         0.21510609
1.5155e+10          0.451975        0.214860428        -22.7069731        0.214821495
1.516e+10            0.4522        0.214259956        -22.7129496        0.214535964
1.5165e+10          0.452425        0.213659794        -22.7199597        0.214249509
1.517e+10           0.45265         0.21305996        -22.7280129        0.213962141
1.5175e+10          0.452875        0.212460475        -22.7371188        0.213673872
1.518e+10            0.4531         0.21186136        -22.7472871        0.213384716
1.5185e+10          0.453325        0.211262634        -22.7585276        0.213094683
1.519e+10           0.45355        0.210664319          -22.77085        0.212803786
1.5195e+10          0.453775        0.210066436        -22.7842642        0.212512037
1.52e+10             0.454        0.209469007        -22.7987803        0.212219448
1.5205e+10          0.454225        0.208872052        -22.8144081        0.211926032
1.521e+10           0.45445        0.208275594        -22.8311579          0.2116318
1.5215e+10          0.454675        0.207679656        -22.8490398        0.211336766
1.522e+10            0.4549        0.207084259         -22.868064        0.211040941
1.5225e+10          0.455125        0.206489427        -22.8882408        0.210744337
1.523e+10           0.45535        0.205895182        -22.9095807        0.210446968
1.5235e+10          0.455575        0.205301549         -22.932094        0.210148845
1.524e+10            0.4558        0.204708551        -22.9557913        0.209849981
1.5245e+10          0.456025        0.204116212        -22.9806831        0.209550389
1.525e+10           0.45625        0.203524556        -23.0067801        0.209250081
1.5255e+10          0.456475        0.202933608         -23.034093        0.208949069
1.526e+10            0.4567        0.202343394        -23.0626325        0.208647365
1.5265e+10          0.456925        0.201753938        -23.0924095        0.208344984
1.527e+10           0.45715        0.201165266        -23.1234348        0.208041936
1.5275e+10          0.457375        0.200577404        -23.1557194        0.207738236
1.528e+10            0.4576        0.199990379        -23.1892743        0.207433894
1.5285e+10          0.457825        0.199404217        -23.2241105        0.207128925
1.529e+10           0.45805        0.198818946        -23.2602392         0.20682334
1.5295e+10          0.458275        0.198234591        -23.2976715        0.206517153
1.53e+10            0.4585        0.197651182        -23.3364186        0.206210376
1.5305e+10          0.458725        0.197068747        -23.3764918        0.205903021
1.531e+10           0.45895        0.196487312        -23.4179024        0.205595102
1.5315e+10          0.459175        0.195906909        -23.4606617        0.205286631
1.532e+10            0.4594        0.195327565        -23.5047812        0.204977622
1.5325e+10          0.459625         0.19474931        -23.5502723        0.204668086
1.533e+10           0.45985        0.194172174        -23.5971464        0.204358037
1.5335e+10          0.460075        0.193596187        -23.6454152        0.204047487
1.534e+10            0.4603         0.19302138          -23.69509        0.203736449
1.5345e+10          0.460525        0.192447784        -23.7461825        0.203424937
1.535e+10           0.46075         0.19187543        -23.7987044        0.203112962
1.5355e+10          0.460975         0.19130435        -23.8526671        0.202800539
1.536e+10            0.4612        0.190734575        -23.9080825        0.202487679
1.5365e+10          0.461425         0.19016614        -23.9649621        0.202174395
1.537e+10           0.46165        0.189599076        -24.0233177        0.201860701
1.5375e+10          0.461875        0.189033416         -24.083161        0.201546609
1.538e+10            0.4621        0.188469196        -24.1445036        0.201232133
1.5385e+10          0.462325        0.187906448        -24.2073573        0.200917284
1.539e+10           0.46255        0.187345207        -24.2717339        0.200602077
1.5395e+10          0.462775        0.186785508         -24.337645        0.200286523
1.54e+10             0.463        0.186227387        -24.4051023        0.199970637
1.5405e+10          0.463225        0.185670879        -24.4741176         0.19965443
1.541e+10           0.46345         0.18511602        -24.5447026        0.199337916
1.5415e+10          0.463675        0.184562848        -24.6168688        0.199021107
1.542e+10            0.4639        0.184011399        -24.6906281        0.198704017
1.5425e+10          0.464125         0.18346171         -24.765992        0.198386659
1.543e+10           0.46435         0.18291382         -24.842972        0.198069044
1.5435e+10          0.464575        0.182367767        -24.9215798        0.197751187
1.544e+10            0.4648        0.181823589        -25.0018268        0.197433101
1.5445e+10          0.465025        0.181281326        -25.0837245        0.197114797
1.545e+10           0.46525        0.180741018        -25.1672844        0.196796289
1.5455e+10          0.465475        0.180202704        -25.2525177        0.196477591
1.546e+10            0.4657        0.179666424        -25.3394357        0.196158714
1.5465e+10          0.465925        0.179132221        -25.4280496        0.195839672
1.547e+10           0.46615        0.178600135        -25.5183707        0.195520477
1.5475e+10          0.466375        0.178070208        -25.6104098        0.195201143
1.548e+10            0.4666        0.177542483         -25.704178        0.194881683
1.5485e+10          0.466825        0.177017001        -25.7996861        0.194562108
1.549e+10           0.46705        0.176493807        -25.8969448        0.194242433
1.5495e+10          0.467275        0.175972944        -25.9959649        0.193922669
1.55e+10            0.4675        0.175454455        -26.0967567        0.193602831
1.5505e+10          0.467725        0.174938386        -26.1993307         0.19328293
1.551e+10           0.46795        0.174424782        -26.3036971        0.192962979
1.5515e+10          0.468175        0.173913687         -26.409866        0.192642992
1.552e+10            0.4684        0.173405148        -26.5178474        0.192322981
1.5525e+10          0.468625        0.172899211         -26.627651        0.192002958
1.553e+10           0.46885        0.172395922        -26.7392865        0.191682937
1.5535e+10          0.469075         0.17189533        -26.8527632         0.19136293
1.554e+10            0.4693        0.171397481        -26.9680905         0.19104295
1.5545e+10          0.469525        0.170902423        -27.0852774         0.19072301
1.555e+10           0.46975        0.170410205        -27.2043327        0.190403123
1.5555e+10          0.469975        0.169920877         -27.325265          0.1900833
1.556e+10            0.4702        0.169434487        -27.4480828        0.189763555
1.5565e+10          0.470425        0.168951085        -27.5727941        0.189443901
1.557e+10           0.47065        0.168470721         -27.699407        0.189124349
1.5575e+10          0.470875        0.167993447         -27.827929        0.188804914
1.558e+10            0.4711        0.167519312        -27.9583675        0.188485606
1.5585e+10          0.471325        0.167048369        -28.0907297        0.188166439
1.559e+10           0.47155         0.16658067        -28.2250222        0.187847426
1.5595e+10          0.471775        0.166116266        -28.3612518        0.187528578
1.56e+10             0.472        0.165655211        -28.4994244        0.187209909
1.5605e+10          0.472225        0.165197557        -28.6395461         0.18689143
1.561e+10           0.47245        0.164743359        -28.7816223        0.186573154
1.5615e+10          0.472675        0.164292669        -28.9256581        0.186255094
1.562e+10            0.4729        0.163845543        -29.0716585        0.185937263
1.5625e+10          0.473125        0.163402034        -29.2196279        0.185619671
1.563e+10           0.47335        0.162962199        -29.3695703        0.185302332
1.5635e+10          0.473575        0.162526091        -29.5214893        0.184985259
1.564e+10            0.4738        0.162093767        -29.6753883        0.184668462
1.5645e+10          0.474025        0.161665282          -29.83127        0.184351955
1.565e+10           0.47425        0.161240694        -29.9891369         0.18403575
1.5655e+10          0.474475        0.160820059        -30.1489908        0.183719859
1.566e+10            0.4747        0.160403433        -30.3108332        0.183404294
1.5665e+10          0.474925        0.159990874        -30.4746652        0.183089068
1.567e+10           0.47515        0.159582439        -30.6404872        0.182774192
1.5675e+10          0.475375        0.159178186        -30.8082993        0.182459678
1.568e+10            0.4756        0.158778174        -30.9781009        0.182145539
1.5685e+10          0.475825         0.15838246         -31.149891        0.181831786
1.569e+10           0.47605        0.157991103         -31.323668        0.181518432
1.5695e+10          0.476275        0.157604162        -31.4994298        0.181205488
1.57e+10            0.4765        0.157221695        -31.6771737        0.180892967
1.5705e+10          0.476725        0.156843762        -31.8568964         0.18058088
1.571e+10           0.47695        0.156470423        -32.0385941        0.180269239
1.5715e+10          0.477175        0.156101735        -32.2222623        0.179958056
1.572e+10            0.4774         0.15573776        -32.4078958        0.179647342
1.5725e+10          0.477625        0.155378556         -32.595489         0.17933711
1.573e+10           0.47785        0.155024184        -32.7850355        0.179027371
1.5735e+10          0.478075        0.154674704        -32.9765282        0.178718137
1.574e+10            0.4783        0.154330175        -33.1699596        0.178409419
1.5745e+10          0.478525        0.153990657        -33.3653212        0.178101229
1.575e+10           0.47875         0.15365621        -33.5626041        0.177793579
1.5755e+10          0.478975        0.153326895        -33.7617983        0.177486479
1.576e+10            0.4792        0.153002772        -33.9628936        0.177179942
1.5765e+10          0.479425          0.1526839        -34.1658787        0.176873979
1.577e+10           0.47965        0.152370339        -34.3707418        0.176568601
1.5775e+10          0.479875        0.152062149        -34.5774701         0.17626382
1.578e+10            0.4801        0.151759391        -34.7860503        0.175959646
1.5785e+10          0.480325        0.151462122        -34.9964683        0.175656092
1.579e+10           0.48055        0.151170404        -35.2087092        0.175353168
1.5795e+10          0.480775        0.150884295        -35.4227572        0.175050885
1.58e+10             0.481        0.150603855         -35.638596        0.174749255
1.5805e+10          0.481225        0.150329141        -35.8562083        0.174448289
1.581e+10           0.48145        0.150060214        -36.0755761        0.174147998
1.5815e+10          0.481675         0.14979713        -36.2966805        0.173848392
1.582e+10            0.4819        0.149539949         -36.519502        0.173549483
1.5825e+10          0.482125        0.149288727        -36.7440201        0.173251282
1.583e+10           0.48235        0.149043523        -36.9702136        0.172953799
1.5835e+10          0.482575        0.148804392        -37.1980605        0.172657046
1.584e+10            0.4828        0.148571393        -37.4275379        0.172361033
1.5845e+10          0.483025         0.14834458        -37.6586222         0.17206577
1.585e+10           0.48325         0.14812401        -37.8912889        0.171771269
1.5855e+10          0.483475        0.147909737        -38.1255127         0.17147754
1.586e+10            0.4837        0.147701816        -38.3612676        0.171184594
1.5865e+10          0.483925        0.147500302        -38.5985267        0.170892441
1.587e+10           0.48415        0.147305247        -38.8372624        0.170601092
1.5875e+10          0.484375        0.147116706         -39.077446        0.170310556
1.588e+10            0.4846        0.146934729        -39.3190484        0.170020846
1.5885e+10          0.484825        0.146759368        -39.5620396         0.16973197
1.589e+10           0.48505        0.146590675        -39.8063886         0.16944394
1.5895e+10          0.485275          0.1464287        -40.0520639        0.169156764
1.59e+10            0.4855        0.146273491        -40.2990331        0.168870455
1.5905e+10          0.485725        0.146125098        -40.5472631        0.168585021
1.591e+10           0.48595        0.145983569        -40.7967201        0.168300473
1.5915e+10          0.486175         0.14584895        -41.0473695        0.168016821
1.592e+10            0.4864        0.145721288        -41.2991759        0.167734075
1.5925e+10          0.486625        0.145600627        -41.5521034        0.167452244
1.593e+10           0.48685        0.145487013        -41.8061153        0.167171339
1.5935e+10          0.487075        0.145380488        -42.0611742         0.16689137
1.594e+10            0.4873        0.145281096        -42.3172422        0.166612346
1.5945e+10          0.487525        0.145188877        -42.5742805        0.166334277
1.595e+10           0.48775        0.145103871          -42.83225        0.166057173
1.5955e+10          0.487975        0.145026119        -43.0911107        0.165781043
1.596e+10            0.4882        0.144955659        -43.3508222        0.165505897
1.5965e+10          0.488425        0.144892528        -43.6113436        0.165231745
1.597e+10           0.48865        0.144836761        -43.8726332        0.164958595
1.5975e+10          0.488875        0.144788395         -44.134649        0.164686457
1.598e+10            0.4891        0.144747462        -44.3973486        0.164415342
1.5985e+10          0.489325        0.144713995        -44.6606888        0.164145257
1.599e+10           0.48955        0.144688027        -44.9246263        0.163876212
1.5995e+10          0.489775        0.144669586        -45.1891172        0.163608217
1.6e+10              0.49        0.144658703        -45.4541173         0.16334128
