! Created Thu Mar 20 00:44:31 2025
# hz S ma R 50
! 2 Port Network Data from SP1.SP block
! freq  magS11  angS11  magS21  angS21  magS12  angS12  magS22  angS22  
!     
1.4e+10       0.682888613        -64.4386838          3.1976549         71.2304318        0.100665292         70.6304318        0.545398843          17.909419
1.4005e+10       0.681279667         -64.655795          3.2046974         70.9707844        0.100932518         70.4072844         0.54417419         17.6926263
1.401e+10       0.679658215        -64.8736638         3.21176127          70.710424        0.101200635          70.183424        0.542939439         17.4751724
1.4015e+10       0.678024152        -65.0922949         3.21884641         70.4493463        0.101469641         69.9588463        0.541694503         17.2570536
1.402e+10       0.676377375         -65.311693         3.22595273         70.1875472        0.101739533         69.7335472        0.540439294         17.0382662
1.4025e+10       0.674717778         -65.531863         3.23308012         69.9250223         0.10201031         69.5075223        0.539173726         16.8188064
1.403e+10       0.673045257        -65.7528095         3.24022847         69.6617675        0.102281969         69.2807675         0.53789771         16.5986706
1.4035e+10       0.671359705        -65.9745375         3.24739768         69.3977785        0.102554507         69.0532785        0.536611158         16.3778551
1.404e+10       0.669661017        -66.1970517         3.25458762         69.1330509        0.102827923         68.8250509        0.535313979         16.1563562
1.4045e+10       0.667949084         -66.420357         3.26179818         68.8675807        0.103102212         68.5960807        0.534006086         15.9341702
1.405e+10       0.666223798        -66.6444583         3.26902923         68.6013633        0.103377373         68.3663633        0.532687386         15.7112935
1.4055e+10       0.664485053        -66.8693605         3.27628063         68.3343947        0.103653401         68.1358947         0.53135779         15.4877223
1.406e+10       0.662732738        -67.0950685         3.28355226         68.0666704        0.103930295         67.9046704        0.530017205          15.263453
1.4065e+10       0.660966743        -67.3215873         3.29084397         67.7981861         0.10420805         67.6726861        0.528665541          15.038482
1.407e+10        0.65918696        -67.5489217         3.29815561         67.5289375        0.104486662         67.4399375        0.527302704         14.8128055
1.4075e+10       0.657393276        -67.7770768         3.30548704         67.2589203        0.104766128         67.2064203        0.525928602           14.58642
1.408e+10        0.65558558        -68.0060577          3.3128381         66.9881301        0.105046444         66.9721301        0.524543141         14.3593218
1.4085e+10       0.653763761        -68.2358692         3.32020863         66.7165626        0.105327606         66.7370626        0.523146227         14.1315073
1.409e+10       0.651927706        -68.4665165         3.32759846         66.4442134        0.105609609         66.5012134        0.521737766         13.9029729
1.4095e+10       0.650077302        -68.6980047         3.33500741         66.1710782        0.105892449         66.2645782        0.520317662          13.673715
1.41e+10       0.648212435        -68.9303387         3.34243532         65.8971526        0.106176121         66.0271526        0.518885821           13.44373
1.4105e+10       0.646332992        -69.1635237         3.34988198         65.6224323         0.10646062         65.7889323        0.517442146         13.2130144
1.411e+10       0.644438857        -69.3975649         3.35734723         65.3469128        0.106745942         65.5499128         0.51598654         12.9815646
1.4115e+10       0.642529916        -69.6324673         3.36483085         65.0705899         0.10703208         65.3100899        0.514518908         12.7493771
1.412e+10       0.640606053        -69.8682361         3.37233265         64.7934591         0.10731903         65.0694591        0.513039152         12.5164484
1.4125e+10       0.638667152        -70.1048765         3.37985242          64.515516        0.107606785          64.828016        0.511547174          12.282775
1.413e+10       0.636713096        -70.3423937         3.38738995         64.2367563         0.10789534         64.5857563        0.510042876         12.0483535
1.4135e+10       0.634743769        -70.5807929         3.39494501         63.9571756        0.108184688         64.3426756        0.508526159         11.8131804
1.414e+10       0.632759054        -70.8200793         3.40251737         63.6767695        0.108474824         64.0987695        0.506996925         11.5772524
1.4145e+10       0.630758831        -71.0602581         3.41010681         63.3955337         0.10876574         63.8540337        0.505455074         11.3405659
1.415e+10       0.628742984        -71.3013347         3.41771307         63.1134637         0.10905743         63.6084637        0.503900507         11.1031178
1.4155e+10       0.626711393        -71.5433144         3.42533592         62.8305552        0.109349887         63.3620552        0.502333122         10.8649046
1.416e+10        0.62466394        -71.7862023          3.4329751         62.5468039        0.109643103         63.1148039        0.500752821         10.6259231
1.4165e+10       0.622600505        -72.0300038         3.44063035         62.2622054        0.109937071         62.8667054        0.499159501           10.38617
1.417e+10       0.620520969        -72.2747243          3.4483014         61.9767552        0.110231784         62.6177552        0.497553063         10.1456421
1.4175e+10       0.618425212        -72.5203691         3.45598797         61.6904492        0.110527232         62.3679492        0.495933404          9.9043362
1.418e+10       0.616313113        -72.7669435         3.46368978         61.4032829        0.110823409         62.1172829        0.494300423         9.66224918
1.4185e+10       0.614184553        -73.0144529         3.47140654          61.115252        0.111120304          61.865752        0.492654018         9.41937793
1.419e+10       0.612039409        -73.2629027         3.47913795         60.8263522        0.111417911         61.6133522        0.490994087         9.17571939
1.4195e+10       0.609877562        -73.5122984         3.48688371         60.5365792        0.111716219         61.3600792        0.489320527         8.93127055
1.42e+10        0.60769889        -73.7626453         3.49464349         60.2459286         0.11201522         61.1059286        0.487633235         8.68602844
1.4205e+10       0.605503272        -74.0139488         3.50241699         59.9543962        0.112314903         60.8508962        0.485932109         8.43999015
1.421e+10       0.603290586        -74.2662145         3.51020386         59.6619778        0.112615259         60.5949778        0.484217045         8.19315281
1.4215e+10       0.601060711        -74.5194477         3.51800378          59.368669        0.112916278          60.338169        0.482487941         7.94551362
1.422e+10       0.598813525         -74.773654         3.52581639         59.0744657        0.113217949         60.0804657        0.480744692         7.69706981
1.4225e+10       0.596548906        -75.0288388         3.53364135         58.7793635        0.113520262         59.8218635        0.478987195         7.44781871
1.423e+10       0.594266732        -75.2850076         3.54147828         58.4833583        0.113823206         59.5623583        0.477215348         7.19775767
1.4235e+10       0.591966881         -75.542166         3.54932682          58.186446        0.114126769          59.301946        0.475429045         6.94688412
1.424e+10       0.589649232        -75.8003195         3.55718658         57.8886223        0.114430939         59.0406223        0.473628183         6.69519558
1.4245e+10       0.587313663        -76.0594735         3.56505718         57.5898831        0.114735706         58.7783831        0.471812658          6.4426896
1.425e+10       0.584960051        -76.3196337         3.57293822         57.2902243        0.115041056         58.5152243        0.469982367         6.18936384
1.4255e+10       0.582588275        -76.5808056         3.58082929         56.9896417        0.115346978         58.2511417        0.468137206           5.935216
1.426e+10       0.580198213        -76.8429948         3.58872997         56.6881314        0.115653458         57.9861314         0.46627707         5.68024389
1.4265e+10       0.577789745        -77.1062069         3.59663985         56.3856893        0.115960483         57.7201893        0.464401857         5.42444538
1.427e+10       0.575362749        -77.3704475         3.60455847         56.0823114         0.11626804         57.4533114        0.462511462         5.16781844
1.4275e+10       0.572917104        -77.6357222         3.61248541         55.7779937        0.116576114         57.1854937        0.460605783         4.91036112
1.428e+10       0.570452688        -77.9020365         3.62042021         55.4727322        0.116884693         56.9167322        0.458684715         4.65207156
1.4285e+10       0.567969383        -78.1693963         3.62836239          55.166523         0.11719376          56.647023        0.456748156         4.39294802
1.429e+10       0.565467068         -78.437807          3.6363115         54.8593623        0.117503302         56.3763623        0.454796003         4.13298882
1.4295e+10       0.562945622        -78.7072744         3.64426704         54.5512462        0.117813303         56.1047462        0.452828153         3.87219242
1.43e+10       0.560404928        -78.9778041         3.65222852          54.242171        0.118123748          55.832171        0.450844503         3.61055735
1.4305e+10       0.557844866        -79.2494018         3.66019544         53.9321328         0.11843462         55.5586328        0.448844952         3.34808229
1.431e+10       0.555265317        -79.5220733         3.66816728         53.6211278        0.118745905         55.2841278        0.446829398         3.08476602
1.4315e+10       0.552666165        -79.7958241         3.67614352         53.3091526        0.119057583         55.0086526         0.44479774         2.82060743
1.432e+10       0.550047292        -80.0706602         3.68412363         52.9962033         0.11936964         54.7322033        0.442749876         2.55560554
1.4325e+10       0.547408582        -80.3465871         3.69210705         52.6822765        0.119682058         54.4547765        0.440685706          2.2897595
1.433e+10       0.544749919        -80.6236107         3.70009324         52.3673685        0.119994818         54.1763685         0.43860513         2.02306861
1.4335e+10       0.542071187        -80.9017367         3.70808163         52.0514759        0.120307903         53.8969759        0.436508049         1.75553228
1.434e+10       0.539372273        -81.1809709         3.71607164         51.7345953        0.120621294         53.6165953        0.434394364          1.4871501
1.4345e+10       0.536653063        -81.4613191         3.72406268         51.4167232        0.120934972         53.3352232        0.432263976         1.21792176
1.435e+10       0.533913445        -81.7427872         3.73205415         51.0978563        0.121248919         53.0528563        0.430116788        0.947847161
1.4355e+10       0.531153307        -82.0253809         3.74004544         50.7779914        0.121563114         52.7694914        0.427952703        0.676926325
1.436e+10       0.528372538        -82.3091062         3.74803594         50.4571253        0.121877537         52.4851253        0.425771625        0.405159459
1.4365e+10        0.52557103        -82.5939689           3.756025         50.1352547        0.122192168         52.1997547        0.423573458        0.132546937
1.437e+10       0.522748672        -82.8799749         3.76401199         49.8123767        0.122506986         51.9133767        0.421358108       -0.140910683
1.4375e+10       0.519905359        -83.1671301         3.77199624         49.4884881        0.122821969         51.6259881         0.41912548       -0.415212661
1.438e+10       0.517040984        -83.4554406          3.7799771          49.163586        0.123137097          51.337586        0.416875483        -0.69035806
1.4385e+10       0.514155442        -83.7449122         3.78795388         48.8376676        0.123452346         51.0481676        0.414608024       -0.966345745
1.439e+10        0.51124863         -84.035551         3.79592589           48.51073        0.123767695           50.75773        0.412323013        -1.24317437
1.4395e+10       0.508320446         -84.327363         3.80389243         48.1827705         0.12408312         50.4662705        0.410020359        -1.52084238
1.44e+10       0.505370788        -84.6203543          3.8118528         47.8537863        0.124398599         50.1737863        0.407699975        -1.79934798
1.4405e+10       0.502399558        -84.9145311         3.81980626         47.5237751        0.124714106         49.8802751        0.405361772        -2.07868917
1.441e+10       0.499406659        -85.2098993         3.82775207         47.1927341        0.125029619         49.5857341        0.403005664        -2.35886367
1.4415e+10       0.496391994        -85.5064653          3.8356895          46.860661        0.125345111          49.290161        0.400631567          -2.639869
1.442e+10       0.493355469        -85.8042352         3.84361777         46.5275535        0.125660559         48.9935535        0.398239396        -2.92170237
1.4425e+10       0.490296992        -86.1032154         3.85153612         46.1934093        0.125975937         48.6959093        0.395829069        -3.20436076
1.443e+10       0.487216472        -86.4034122         3.85944376         45.8582262        0.126291219         48.3972262        0.393400506        -3.48784084
1.4435e+10       0.484113821        -86.7048319         3.86733989         45.5220022        0.126606378         48.0975022        0.390953627          -3.772139
1.444e+10       0.480988951         -87.007481         3.87522371         45.1847353        0.126921388         47.7967353        0.388488355        -4.05725134
1.4445e+10       0.477841779         -87.311366          3.8830944         44.8464235        0.127236221         47.4949235        0.386004612        -4.34317364
1.445e+10       0.474672221        -87.6164934         3.89095113         44.5070652        0.127550849         47.1920652        0.383502325        -4.62990133
1.4455e+10       0.471480198          -87.92287         3.89879304         44.1666586        0.127865246         46.8881586        0.380981421        -4.91742954
1.446e+10       0.468265631        -88.2305025         3.90661929         43.8252022        0.128179381         46.5832022        0.378441828        -5.20575302
1.4465e+10       0.465028444        -88.5393976         3.91442901         43.4826945        0.128493226         46.2771945        0.375883478        -5.49486617
1.447e+10       0.461768566        -88.8495623         3.92222132         43.1391341        0.128806751         45.9701341        0.373306303        -5.78476299
1.4475e+10       0.458485923        -89.1610036         3.92999532         42.7945197        0.129119926         45.6620197        0.370710237        -6.07543709
1.448e+10        0.45518045        -89.4737286         3.93775011         42.4488503        0.129432722         45.3528503        0.368095219        -6.36688168
1.4485e+10       0.451852079        -89.7877446         3.94548478         42.1021247        0.129745107         45.0426247        0.365461186        -6.65908952
1.449e+10       0.448500749        -90.1030588         3.95319839         41.7543422         0.13005705         44.7313422         0.36280808        -6.95205294
1.4495e+10       0.445126399        -90.4196788         3.96089002         41.4055018        0.130368519         44.4190018        0.360135843        -7.24576379
1.45e+10       0.441728971        -90.7376123         3.96855871          41.055603        0.130679483          44.105603        0.357444422        -7.54021343
1.4505e+10       0.438308413         -91.056867         3.97620349         40.7046453        0.130989908         43.7911453        0.354733765        -7.83539273
1.451e+10       0.434864673        -91.3774509         3.98382339         40.3526281        0.131299762         43.4756281        0.352003821          -8.131292
1.4515e+10       0.431397704        -91.6993721         3.99141744         39.9995512        0.131609011         43.1590512        0.349254544        -8.42790103
1.452e+10       0.427907459         -92.022639         3.99898462         39.6454145        0.131917621         42.8414145        0.346485889          -8.725209
1.4525e+10       0.424393899        -92.3472601         4.00652394          39.290218        0.132225558          42.522718        0.343697815        -9.02320452
1.453e+10       0.420856985        -92.6732442         4.01403437         38.9339618        0.132532787         42.2029618        0.340890282        -9.32187552
1.4535e+10       0.417296683        -93.0006002         4.02151489         38.5766462        0.132839274         41.8821462        0.338063253        -9.62120932
1.454e+10       0.413712961        -93.3293376         4.02896445         38.2182716        0.133144982         41.5602716        0.335216696        -9.92119251
1.4545e+10       0.410105793        -93.6594658           4.036382         37.8588385        0.133449875         41.2373385         0.33235058         -10.221811
1.455e+10       0.406475156        -93.9909948         4.04376649         37.4983477        0.133753918         40.9133477        0.329464878        -10.5230498
1.4555e+10       0.402821028        -94.3239346         4.05111683         37.1368001        0.134057073         40.5883001        0.326559564        -10.8248934
1.456e+10       0.399143395        -94.6582958         4.05843194         36.7741966        0.134359303         40.2621966        0.323634619        -11.1273251
1.4565e+10       0.395442244        -94.9940894         4.06571074         36.4105384         0.13466057         39.9350384        0.320690023        -11.4303277
1.457e+10       0.391717569        -95.3313267         4.07295212         36.0458269        0.134960837         39.6068269        0.317725762        -11.7338827
1.4575e+10       0.387969365        -95.6700195         4.08015496         35.6800636        0.135260064         39.2775636        0.314741825         -12.037971
1.458e+10       0.384197634        -96.0101798         4.08731815         35.3132501        0.135558214         38.9472501        0.311738203        -12.3425721
1.4585e+10       0.380402379        -96.3518207         4.09444055         34.9453883        0.135855247         38.6158883        0.308714894        -12.6476647
1.459e+10       0.376583612        -96.6949552         4.10152103         34.5764801        0.136151124         38.2834801        0.305671894        -12.9532262
1.4595e+10       0.372741345        -97.0395972         4.10855843         34.2065277        0.136445804         37.9500277        0.302609209        -13.2592331
1.46e+10       0.368875598        -97.3857614          4.1155516         33.8355335        0.136739248         37.6155335        0.299526844        -13.5656602
1.4605e+10       0.364986393        -97.7334629         4.12249937            33.4635        0.137031415              37.28        0.296424811        -13.8724812
1.461e+10        0.36107376        -98.0827176         4.12940057         33.0904299        0.137322263         36.9434299        0.293303123        -14.1796685
1.4615e+10        0.35713773        -98.4335422         4.13625402          32.716326        0.137611752          36.605826        0.290161799        -14.4871927
1.462e+10       0.353178342        -98.7859543         4.14305853         32.3411914         0.13789984         36.2671914        0.287000861        -14.7950232
1.4625e+10       0.349195639        -99.1399725          4.1498129         31.9650294        0.138186486         35.9275294        0.283820337        -15.1031273
1.463e+10       0.345189668        -99.4956163         4.15651593         31.5878434        0.138471646         35.5868434        0.280620257        -15.4114708
1.4635e+10       0.341160484        -99.8529062         4.16316642          31.209637         0.13875528          35.245137        0.277400656        -15.7200176
1.464e+10       0.337108144        -100.211864         4.16976314          30.830414        0.139037343          34.902414        0.274161574        -16.0287294
1.4645e+10       0.333032713        -100.572513         4.17630488         30.4501785        0.139317793         34.5586785        0.270903055        -16.3375659
1.465e+10        0.32893426        -100.934877          4.1827904         30.0689347        0.139596587         34.2139347        0.267625148        -16.6464845
1.4655e+10       0.324812859        -101.298982         4.18921849         29.6866869         0.13987368         33.8681869        0.264327905        -16.9554401
1.466e+10       0.320668593        -101.664856         4.19558791         29.3034397        0.140149031         33.5214397        0.261011385         -17.264385
1.4665e+10       0.316501546        -102.032528          4.2018974         28.9191981        0.140422594         33.1736981        0.257675649        -17.5732687
1.467e+10       0.312311811        -102.402028         4.20814574         28.5339669        0.140694325         32.8249669        0.254320767        -17.8820377
1.4675e+10       0.308099485        -102.773391         4.21433167         28.1477513         0.14096418         32.4752513        0.250946809        -18.1906353
1.468e+10       0.303864673        -103.146651         4.22045395         27.7605569        0.141232115         32.1245569        0.247553853        -18.4990013
1.4685e+10       0.299607485        -103.521847         4.22651132         27.3723892        0.141498085         31.7728892        0.244141982        -18.8070718
1.469e+10       0.295328036        -103.899018         4.23250253         26.9832541        0.141762045         31.4202541        0.240711283        -19.1147791
1.4695e+10       0.291026448        -104.278207         4.23842632         26.5931576         0.14202395         31.0666576        0.237261848        -19.4220508
1.47e+10        0.28670285        -104.659462         4.24428144          26.202106        0.142283755          30.712106        0.233793777        -19.7288101
1.4705e+10       0.282357377        -105.042832         4.25006663         25.8101057        0.142541415         30.3566057        0.230307172        -20.0349751
1.471e+10       0.277990169        -105.428371         4.25578063         25.4171634        0.142796885         30.0001634        0.226802143        -20.3404585
1.4715e+10       0.273601374        -105.816135         4.26142218         25.0232861         0.14305012         29.6427861        0.223278804         -20.645167
1.472e+10       0.269191147        -106.206188         4.26699004         24.6284809        0.143301074         29.2844809        0.219737275        -20.9490007
1.4725e+10       0.264759648        -106.598595         4.27248294          24.232755        0.143549702          28.925255        0.216177682         -21.251853
1.473e+10       0.260307045         -106.99343         4.27789963         23.8361162        0.143795958         28.5651162        0.212600158        -21.5536095
1.4735e+10       0.255833512         -107.39077         4.28323886          23.438572        0.144039797          28.204072        0.209004839        -21.8541475
1.474e+10       0.251339231        -107.790701         4.28849939         23.0401306        0.144281174         27.8421306        0.205391871        -22.1533349
1.4745e+10       0.246824388        -108.193313         4.29367997         22.6408001        0.144520044         27.4793001        0.201761403        -22.4510301
1.475e+10       0.242289181        -108.598707         4.29877937          22.240589        0.144756361          27.115589        0.198113591        -22.7470799
1.4755e+10       0.237733811        -109.006992         4.30379635          21.839506         0.14499008          26.751006        0.194448599        -23.0413194
1.476e+10       0.233158488        -109.418285         4.30872968         21.4375599        0.145221156         26.3855599        0.190766596        -23.3335702
1.4765e+10        0.22856343        -109.832715         4.31357814         21.0347598        0.145449545         26.0192598        0.187067759        -23.6236391
1.477e+10        0.22394886        -110.250424         4.31834052          20.631115        0.145675201          25.652115         0.18335227        -23.9113166
1.4775e+10       0.219315012        -110.671567          4.3230156         20.2266352         0.14589808         25.2841352        0.179620321        -24.1963749
1.478e+10       0.214662126        -111.096312         4.32760219         19.8213299        0.146118138         24.9153299        0.175872109        -24.4785662
1.4785e+10       0.209990449        -111.524845         4.33209909         19.4152093         0.14633533         24.5457093         0.17210784        -24.7576198
1.479e+10       0.205300238        -111.957373         4.33650513         19.0082835        0.146549613         24.1752835        0.168327726          -25.03324
1.4795e+10       0.200591757         -112.39412         4.34081912          18.600563        0.146760943          23.804063        0.164531991        -25.3051028
1.48e+10       0.195865281        -112.835338         4.34503991         18.1920584        0.146969276         23.4320584        0.160720864        -25.5728522
1.4805e+10       0.191121091        -113.281304         4.34916634         17.7827805        0.147174569         23.0592805        0.156894584        -25.8360964
1.481e+10       0.186359478        -113.732325         4.35319727         17.3727404         0.14737678         22.6857404          0.1530534        -26.0944027
1.4815e+10       0.181580743        -114.188745         4.35713158         16.9619494        0.147575866         22.3114494        0.149197571        -26.3472926
1.482e+10       0.176785198        -114.650948         4.36096815          16.550419        0.147771784          21.936419        0.145327366        -26.5942346
1.4825e+10       0.171973164        -115.119362         4.36470588         16.1381609        0.147964495         21.5606609        0.141443068        -26.8346374
1.483e+10       0.167144974        -115.594469         4.36834368         15.7251871        0.148153955         21.1841871        0.137544969        -27.0678406
1.4835e+10       0.162300971        -116.076812         4.37188048         15.3115096        0.148340124         20.8070096        0.133633376        -27.2931044
1.484e+10       0.157441514        -116.567007         4.37531523         14.8971409        0.148522962         20.4291409        0.129708611        -27.5095969
1.4845e+10       0.152566974        -117.065749         4.37864687         14.4820933        0.148702429         20.0505933        0.125771013        -27.7163797
1.485e+10       0.147677735        -117.573833         4.38187439         14.0663798        0.148878485         19.6713798        0.121820937        -27.9123896
1.4855e+10       0.142774202        -118.092166         4.38499678         13.6500132        0.149051092         19.2915132        0.117858761        -28.0964174
1.486e+10       0.137856796        -118.621792         4.38801306         13.2330067        0.149220212         18.9110067        0.113884884        -28.2670815
1.4865e+10       0.132925958        -119.163912         4.39092225         12.8153737        0.149385805         18.5298737        0.109899733        -28.4227959
1.487e+10       0.127982154        -119.719925         4.39372339         12.3971276        0.149547836         18.1481276        0.105903766        -28.5617311
1.4875e+10       0.123025877        -120.291457         4.39641557         11.9782821        0.149706268         17.7657821        0.101897474        -28.6817652
1.488e+10       0.118057653        -120.880419         4.39899787         11.5588513        0.149861065         17.3828513       0.0978813948        -28.7804229
1.4885e+10       0.113078044        -121.489065          4.4014694         11.1388491        0.150012191         16.9993491       0.0938561125        -28.8547987
1.489e+10        0.10808766        -122.120076         4.40382929         10.7182899        0.150159612         16.6152899       0.0898222747        -28.9014598
1.4895e+10       0.103087163        -122.776663         4.40607669         10.2971881        0.150303294         16.2306881       0.0857806024        -28.9163202
1.49e+10      0.0980772861        -123.462704         4.40821079          9.8755584        0.150443204         15.8455584       0.0817319087        -28.8944789
1.4905e+10       0.093058845        -124.182924         4.41023078          9.4534155        0.150579309         15.4599155       0.0776771218         -28.830007
1.491e+10      0.0880327647         -124.94314         4.41213589         9.03077439        0.150711579         15.0737744       0.0736173154        -28.7156649
1.4915e+10      0.0830001097        -125.750591         4.41392537         8.60765022        0.150839981         14.6871502       0.0695537504        -28.5425222
1.492e+10      0.0779621276        -126.614399         4.41559849         8.18405825        0.150964486         14.3000583       0.0654879318        -28.2994387
1.4925e+10      0.0729203113        -127.546213         4.41715454         7.76001394        0.151085065         13.9125139       0.0614216886        -27.9723446
1.493e+10      0.0678764883        -128.561145         4.41859287         7.33553287        0.151201689         13.5245329       0.0573572865        -27.5432252
1.4935e+10      0.0628329537        -129.679139         4.41991281         6.91063078        0.151314331         13.1361308       0.0532975924        -26.9886595
1.494e+10      0.0577926713        -130.927049         4.42111374         6.48532355        0.151422964         12.7473235       0.0492463179        -26.2776757
1.4945e+10      0.0527595896        -132.341857         4.42219508         6.05962719        0.151527562         12.3581272       0.0452083905        -25.3685292
1.495e+10      0.0477391538        -133.975851         4.42315625         5.63355784          0.1516281         11.9685578       0.0411905358        -24.2037419
1.4955e+10      0.0427391702         -135.90525         4.42399673         5.20713179        0.151724555         11.5786318       0.0372022178        -22.7022668
1.496e+10      0.0377713352        -138.245174         4.42471599         4.78036543        0.151816904         11.1883654       0.0332572171        -20.7467768
1.4965e+10      0.0328540914        -141.176913         4.42531356         4.35327527        0.151905124         10.7977753        0.029376376        -18.1625483
1.497e+10      0.0280183096        -145.000055         4.42578898         3.92587795        0.151989195          10.406878       0.0255925723        -14.6818618
1.4975e+10      0.0233194349        -150.236905         4.42614185         3.49819019        0.152069096         10.0156902       0.0219600555        -9.88475299
1.498e+10      0.0188654268        -157.845089         4.42637176         3.07022884        0.152144808         9.62422884       0.0185722828        -3.10969746
1.4985e+10       0.014884048         -169.60145         4.42647836         2.64201083        0.152216314         9.23251083       0.0155945708         6.62794681
1.499e+10      0.0118682081         171.732901         4.42646132         2.21355318        0.152283596         8.84055318        0.013310493         20.4568466
1.4995e+10      0.0106776178         145.397922         4.42632033           1.784873        0.152346639           8.448373       0.0121241934         38.5044957
1.5e+10      0.0118801125         119.069711         4.42605514         1.35598749        0.152405427         8.05598749       0.0123608225          58.047291
1.5005e+10      0.0148702423         101.407946         4.42610582        0.937430644         0.15247077         7.66943064        0.013865169         74.9786273
1.501e+10      0.0187356438         90.1624552         4.42604036        0.518640855        0.152532138         7.28264085       0.0163513378         87.6109291
1.5015e+10      0.0230420974          82.790762          4.4258585        0.099633647        0.152589518         6.89563365       0.0194487621         96.4760304
1.502e+10      0.0275853305          77.665982         4.42555998       -0.319575382        0.152642896         6.50842462       0.0229126698         102.684676
1.5025e+10      0.0322665416         73.8980783          4.4251446       -0.738970567         0.15269226         6.12102943       0.0266016259         107.119988
1.503e+10      0.0370341566         70.9943124         4.42461216        -1.15853619        0.152737598         5.73346381       0.0304349007         110.365348
1.5035e+10      0.0418591003         68.6686047         4.42396252        -1.57825645        0.152778899         5.34574355       0.0343649489          112.79223
1.504e+10      0.0467238356         66.7461841         4.42319552        -1.99811554        0.152816155         4.95788446       0.0383625323         114.639498
1.5045e+10      0.0516171552         65.1152262         4.42231108        -2.41809757        0.152849356         4.56990243       0.0424088667         116.064566
1.505e+10      0.0565315318         63.7012487         4.42130913        -2.83818661        0.152878495         4.18181339        0.046491383         117.174121
1.5055e+10      0.0614616858         62.4529001          4.4201896        -3.25836672        0.152903565         3.79363328       0.0506013556         118.042481
1.506e+10      0.0664037687         61.3337119         4.41895249         -3.6786219        0.152924561          3.4053781       0.0547325223         118.722745
1.5065e+10      0.0713548769         60.3171141         4.41759781        -4.09893614        0.152941477         3.01706386       0.0588802517         119.253732
1.507e+10      0.0763127496          59.383314         4.41612559        -4.51929341         0.15295431         2.62870659       0.0630410232         119.664411
1.5075e+10      0.0812755758         58.5172788         4.41453591        -4.93967765        0.152963058         2.24032235       0.0672120927         119.976799
1.508e+10      0.0862418665         57.7073938         4.41282886        -5.36007281        0.152967718         1.85192719       0.0713912704         120.207909
1.5085e+10      0.0912103678         56.9445488         4.41100458        -5.78046281         0.15296829         1.46353719       0.0755767715         120.371083
1.509e+10      0.0961800011         56.2215012          4.4090632         -6.2008316        0.152964774          1.0751684       0.0797671115         120.476923
1.5095e+10       0.101149821         55.5324228         4.40700493        -6.62116311        0.152957172        0.686836889       0.0839610326         120.533955
1.51e+10       0.106118983          54.872573         4.40482996        -7.04144129        0.152945485        0.298558711       0.0881574513         120.549114
1.5105e+10       0.111086725         54.2380575         4.40253854         -7.4616501        0.152929717      -0.0896500998       0.0923554186         120.528092
1.511e+10       0.116052345         53.6256484         4.40013094        -7.88177353        0.152909871       -0.477773528       0.0965540922         120.475608
1.5115e+10       0.121015194         53.0326488         4.39760745        -8.30179558        0.152885955       -0.865795584        0.100752714         120.395605
1.512e+10       0.125974663         52.4567884          4.3949684        -8.72170031        0.152857972        -1.25370031        0.104950595         120.291403
1.5125e+10       0.130930176         51.8961432         4.39221413        -9.14147178        0.152825932        -1.64147178        0.109147101         120.165816
1.513e+10       0.135881187          51.349072         4.38934503        -9.56109411        0.152789841        -2.02909411        0.113341644         120.021248
1.5135e+10       0.140827172         50.8141673         4.38636151        -9.98055147        0.152749709        -2.41655147        0.117533671         119.859763
1.514e+10       0.145767628         50.2902152           4.383264        -10.3998281        0.152705546        -2.80382807        0.121722666         119.683144
1.5145e+10       0.150702068         49.7761636         4.38005295        -10.8189082        0.152657363        -3.19090818        0.125908136         119.492938
1.515e+10       0.155630022         49.2710966         4.37672886        -11.2377761        0.152605172        -3.57777613        0.130089611         119.290495
1.5155e+10       0.160551031         48.7742136         4.37329224        -11.6564163        0.152548986        -3.96441632        0.134266643         119.077001
1.516e+10       0.165464649         48.2848114         4.36974363        -12.0748132        0.152488819        -4.35081322        0.138438799         118.853496
1.5165e+10        0.17037044         47.8022708         4.36608359        -12.4929514        0.152424685        -4.73695136        0.142605663         118.620904
1.517e+10       0.175267978         47.3260443         4.36231272        -12.9108154        0.152356601        -5.12281538        0.146766832         118.380042
1.5175e+10       0.180156847         46.8556462         4.35843162          -13.32839        0.152284583        -5.50838998        0.150921914          118.13164
1.518e+10       0.185036636         46.3906444         4.35444095          -13.74566        0.152208648        -5.89365995        0.155070528         117.876348
1.5185e+10       0.189906946         45.9306535         4.35034135        -14.1626102        0.152128815        -6.27861019        0.159212303         117.614752
1.519e+10       0.194767382         45.4753287         4.34613353        -14.5792257        0.152045103        -6.66322569        0.163346879         117.347377
1.5195e+10       0.199617556         45.0243608         4.34181819        -14.9954915        0.151957532        -7.04749152        0.167473902         117.074699
1.52e+10       0.204457089         44.5774719         4.33739607        -15.4113929        0.151866123         -7.4313929        0.171593026         116.797147
1.5205e+10       0.209285606         44.1344116         4.33286792        -15.8269151        0.151770898        -7.81491512        0.175703914         116.515111
1.521e+10       0.214102741         43.6949541         4.32823452        -16.2420436         0.15167188        -8.19804362        0.179806234         116.228947
1.5215e+10       0.218908131         43.2588948         4.32349668        -16.6567639        0.151569091        -8.58076393        0.183899662         115.938977
1.522e+10       0.223701421         42.8260487         4.31865521        -17.0710617        0.151462556        -8.96306172         0.18798388         115.645499
1.5225e+10       0.228482262         42.3962478         4.31371096        -17.4849228          0.1513523        -9.34492279        0.192058576         115.348784
1.523e+10       0.233250309         41.9693392         4.30866479         -17.898333        0.151238349        -9.72633304        0.196123445         115.049081
1.5235e+10       0.238005226         41.5451838         4.30351758        -18.3112785        0.151120728        -10.1072785        0.200178186          114.74662
1.524e+10       0.242746679          41.123655         4.29827024        -18.7237455        0.150999466        -10.4877455        0.204222505         114.441613
1.5245e+10       0.247474343         40.7046369         4.29292369        -19.1357202         0.15087459        -10.8677202        0.208256114         114.134255
1.525e+10       0.252187897         40.2880237         4.28747886        -19.5471892        0.150746129        -11.2471892        0.212278728         113.824728
1.5255e+10       0.256887026         39.8737187         4.28193672        -19.9581391        0.150614112        -11.6261391        0.216290071         113.513201
1.526e+10       0.261571422         39.4616331         4.27629823        -20.3685566        0.150478568        -12.0045566        0.220289869         113.199829
1.5265e+10        0.26624078         39.0516856         4.27056438        -20.7784288        0.150339529        -12.3824288        0.224277855         112.884758
1.527e+10       0.270894804         38.6438015         4.26473619        -21.1877426        0.150197025        -12.7597426        0.228253768         112.568124
1.5275e+10       0.275533201         38.2379123         4.25881467        -21.5964854        0.150051089        -13.1364854        0.232217351         112.250055
1.528e+10       0.280155686         37.8339548         4.25280087        -22.0046445        0.149901752        -13.5126445        0.236168352         111.930667
1.5285e+10       0.284761978          37.431871         4.24669583        -22.4122076        0.149749047        -13.8882076        0.240106525         111.610073
1.529e+10       0.289351804         37.0316075         4.24050061        -22.8191623        0.149593008        -14.2631623        0.244031629         111.288377
1.5295e+10       0.293924894         36.6331149          4.2342163        -23.2254966         0.14943367        -14.6374966        0.247943428         110.965676
1.53e+10       0.298480986         36.2363479         4.22784399        -23.6311986        0.149271065        -15.0111986        0.251841691         110.642064
1.5305e+10       0.303019823         35.8412644         4.22138477        -24.0362565         0.14910523        -15.3842565        0.255726192         110.317625
1.531e+10       0.307541155         35.4478259         4.21483978        -24.4406588          0.1489362        -15.7566588        0.259596711         109.992443
1.5315e+10       0.312044736         35.0559964         4.20821012         -24.844394        0.148764011         -16.128394        0.263453033         109.666595
1.532e+10       0.316530327          34.665743         4.20149694        -25.2474511        0.148588698        -16.4994511        0.267294946         109.340153
1.5325e+10       0.320997696         34.2770351         4.19470138        -25.6498189        0.148410299        -16.8698189        0.271122247         109.013186
1.533e+10       0.325446614         33.8898444          4.1878246        -26.0514866        0.148228851        -17.2394866        0.274934735          108.68576
1.5335e+10       0.329876861         33.5041448         4.18086776        -26.4524436        0.148044392        -17.6084436        0.278732215         108.357936
1.534e+10       0.334288221         33.1199119         4.17383204        -26.8526794        0.147856959        -17.9766794        0.282514497         108.029774
1.5345e+10       0.338680485         32.7371234         4.16671861        -27.2521836         0.14766659        -18.3441836        0.286281397         107.701329
1.535e+10       0.343053448         32.3557584         4.15952866        -27.6509463        0.147473324        -18.7109463        0.290032735         107.372655
1.5355e+10       0.347406915         31.9757977         4.15226338        -28.0489576          0.1472772        -19.0769576        0.293768336         107.043801
1.536e+10       0.351740692         31.5972234         4.14492398        -28.4462076        0.147078257        -19.4422076         0.29748803         106.714816
1.5365e+10       0.356054594         31.2200188         4.13751165        -28.8426869        0.146876534        -19.8066869        0.301191654         106.385746
1.537e+10       0.360348442         30.8441686         4.13002761        -29.2383862         0.14667207        -20.1703862        0.304879048         106.056633
1.5375e+10        0.36462206         30.4696586         4.12247308        -29.6332963        0.146464907        -20.5332963        0.308550058         105.727521
1.538e+10       0.368875282         30.0964754         4.11484926        -30.0274083        0.146255082        -20.8954083        0.312204533         105.398448
1.5385e+10       0.373107944         29.7246066         4.10715738        -30.4207134        0.146042638        -21.2567134         0.31584233         105.069452
1.539e+10       0.377319891         29.3540409         4.09939866        -30.8132031        0.145827614        -21.6172031        0.319463309          104.74057
1.5395e+10        0.38151097         28.9847675         4.09157433        -31.2048689         0.14561005        -21.9768689        0.323067335         104.411837
1.54e+10       0.385681039         28.6167766         4.08368561        -31.5957029        0.145389988        -22.3357029         0.32665428         104.083285
1.5405e+10       0.389829956         28.2500588         4.07573374        -31.9856969        0.145167468        -22.6936969        0.330224017         103.754946
1.541e+10        0.39395759         27.8846056         4.06771994        -32.3748432         0.14494253        -23.0508432        0.333776427         103.426851
1.5415e+10       0.398063811          27.520409         4.05964545        -32.7631342        0.144715217        -23.4071342        0.337311396         103.099029
1.542e+10       0.402148497         27.1574615         4.05151149        -33.1505626        0.144485568        -23.7625626        0.340828812         102.771507
1.5425e+10       0.406211533          26.795756         4.04331928        -33.5371211        0.144253625        -24.1171211        0.344328569         102.444314
1.543e+10       0.410252807          26.435286         4.03507007        -33.9228027         0.14401943        -24.4708027        0.347810568         102.117473
1.5435e+10       0.414272212         26.0760454         4.02676507        -34.3076006        0.143783022        -24.8236006        0.351274712          101.79101
1.544e+10        0.41826965         25.7180284         4.01840551        -34.6915082        0.143544443        -25.1755082        0.354720909         101.464949
1.5445e+10       0.422245024         25.3612298          4.0099926         -35.074519        0.143303734         -25.526519        0.358149072         101.139312
1.545e+10       0.426198246         25.0056444         4.00152757        -35.4566269        0.143060937        -25.8766269        0.361559119          100.81412
1.5455e+10       0.430129232         24.6512674         3.99301164        -35.8378258        0.142816092        -26.2258258        0.364950972         100.489396
1.546e+10       0.434037903         24.2980945         3.98444601        -36.2181098        0.142569239        -26.5741098        0.368324557         100.165158
1.5465e+10       0.437924184         23.9461212         3.97583189        -36.5974732        0.142320421        -26.9214732        0.371679805         99.8414259
1.547e+10       0.441788008         23.5953437         3.96717048        -36.9759107        0.142069677        -27.2679107        0.375016651         99.5182188
1.5475e+10        0.44562931         23.2457582         3.95846299        -37.3534167        0.141817049        -27.6134167        0.378335036         99.1955539
1.548e+10       0.449448032          22.897361          3.9497106        -37.7299863        0.141562576        -27.9579863        0.381634902         98.8734484
1.5485e+10       0.453244121         22.5501486          3.9409145        -38.1056146          0.1413063        -28.3016146        0.384916198         98.5519188
1.549e+10       0.457017528         22.2041179         3.93207588        -38.4802967         0.14104826        -28.6442967        0.388178876         98.2309806
1.5495e+10       0.460768208         21.8592656          3.9231959         -38.854028        0.140788497         -28.986028        0.391422892         97.9106491
1.55e+10       0.464496124         21.5155887         3.91427573        -39.2268043         0.14052705        -29.3268043        0.394648207         97.5909388
1.5505e+10       0.468201239         21.1730843         3.90531655        -39.5986213         0.14026396        -29.6666213        0.397854785         97.2718635
1.551e+10       0.471883525         20.8317496         3.89631949         -39.969475        0.139999265         -30.005475        0.401042594         96.9534367
1.5515e+10       0.475542955         20.4915819         3.88728572        -40.3393614        0.139733006        -30.3433614        0.404211605         96.6356712
1.552e+10        0.47917951         20.1525785         3.87821636        -40.7082769        0.139465221        -30.6802769        0.407361796         96.3185794
1.5525e+10       0.482793172         19.8147368         3.86911255         -41.076218        0.139195949         -31.016218        0.410493146          96.002173
1.553e+10       0.486383929         19.4780543         3.85997541        -41.4431813        0.138925229        -31.3511813        0.413605638         95.6864634
1.5535e+10       0.489951774         19.1425285         3.85080605        -41.8091637        0.138653099        -31.6851637        0.416699258         95.3714615
1.554e+10       0.493496702          18.808157         3.84160559        -42.1741621        0.138379598        -32.0181621        0.419773998         95.0571777
1.5545e+10       0.497018714         18.4749374         3.83237511        -42.5381737        0.138104764        -32.3501737        0.422829852          94.743622
1.555e+10       0.500517814         18.1428672         3.82311571        -42.9011958        0.137828634        -32.6811958        0.425866816          94.430804
1.5555e+10       0.503994011         17.8119441         3.81382845        -43.2632258        0.137551245        -33.0112258        0.428884893         94.1187327
1.556e+10       0.507447317         17.4821658         3.80451442        -43.6242614        0.137272635        -33.3402614        0.431884085          93.807417
1.5565e+10       0.510877747           17.15353         3.79517466        -43.9843004        0.136992841        -33.6683004        0.434864401         93.4968653
1.557e+10       0.514285321         16.8260341         3.78581023        -44.3433407        0.136711899        -33.9953407         0.43782585         93.1870855
1.5575e+10       0.517670064         16.4996761         3.77642216        -44.7013803        0.136429845        -34.3213803        0.440768447         92.8780853
1.558e+10       0.521032001         16.1744534         3.76701148        -45.0584176        0.136146715        -34.6464176        0.443692209          92.569872
1.5585e+10       0.524371163         15.8503637         3.75757921         -45.414451        0.135862545         -34.970451        0.446597155         92.2624526
1.559e+10       0.527687584         15.5274047         3.74812636        -45.7694788         0.13557737        -35.2934788        0.449483307         91.9558337
1.5595e+10       0.530981301         15.2055739         3.73865391           -46.1235        0.135291225           -35.6155        0.452350692         91.6500215
1.56e+10       0.534252355          14.884869         3.72916286        -46.4765131        0.135004144        -35.9365131        0.455199338         91.3450222
1.5605e+10       0.537500788         14.5652874         3.71965418        -46.8285173        0.134716162        -36.2565173        0.458029276         91.0408413
1.561e+10       0.540726649         14.2468269         3.71012882        -47.1795116        0.134427313        -36.5755116         0.46084054         90.7374844
1.5615e+10       0.543929986         13.9294847         3.70058775        -47.5294952         0.13413763        -36.8934952        0.463633165         90.4349565
1.562e+10       0.547110852         13.6132585          3.6910319        -47.8784676        0.133847147        -37.2104676        0.466407192         90.1332626
1.5625e+10       0.550269304         13.2981457          3.6814622        -48.2264281        0.133555895        -37.5264281        0.469162661         89.8324071
1.563e+10       0.553405398         12.9841436         3.67187957        -48.5733765        0.133263909        -37.8413765        0.471899617         89.5323944
1.5635e+10       0.556519198         12.6712497          3.6622849        -48.9193125        0.132971219        -38.1553125        0.474618105         89.2332286
1.564e+10       0.559610765         12.3594613         3.65267911        -49.2642359        0.132677858        -38.4682359        0.477318174         88.9349135
1.5645e+10       0.562680168         12.0487758         3.64306306        -49.6081468        0.132383856        -38.7801468        0.479999875         88.6374527
1.565e+10       0.565727474         11.7391902         3.63343763        -49.9510453        0.132089246        -39.0910453        0.482663261         88.3408496
1.5655e+10       0.568752755          11.430702         3.62380367        -50.2929316        0.131794057        -39.4009316        0.485308386         88.0451073
1.566e+10       0.571756086         11.1233082         3.61416204        -50.6338061         0.13149832        -39.7098061        0.487935309         87.7502287
1.5665e+10       0.574737541          10.817006         3.60451356        -50.9736692        0.131202065        -40.0176692        0.490544087         87.4562165
1.567e+10         0.5776972         10.5117926         3.59485907        -51.3125215        0.130905321        -40.3245215        0.493134783         87.1630732
1.5675e+10       0.580635142         10.2076649         3.58519937        -51.6503638        0.130608117        -40.6303638        0.495707458         86.8708011
1.568e+10        0.58355145         9.90461991         3.57553525        -51.9871967        0.130310482        -40.9351967        0.498262178         86.5794023
1.5685e+10        0.58644621         9.60265471         3.56586752        -52.3230213        0.130012444        -41.2390213         0.50079901         86.2888787
1.569e+10       0.589319507         9.30176617         3.55619693        -52.6578384        0.129714031        -41.5418384        0.503318021          85.999232
1.5695e+10        0.59217143         9.00195118         3.54652426        -52.9916492        0.129415271        -41.8436492        0.505819281         85.7104638
1.57e+10        0.59500207         8.70320659         3.53685026         -53.324455        0.129116191         -42.144455        0.508302863         85.4225755
1.5705e+10       0.597811517         8.40552919         3.52717567         -53.656257        0.128816818         -42.444257        0.510768838         85.1355681
1.571e+10       0.600599867         8.10891573         3.51750121        -53.9870565        0.128517177        -42.7430565        0.513217281         84.8494428
1.5715e+10       0.603367214         7.81336294          3.5078276        -54.3168552        0.128217296        -43.0408552        0.515648269         84.5642005
1.572e+10       0.606113656         7.51886749         3.49815555        -54.6456545        0.127917199        -43.3376545        0.518061878         84.2798417
1.5725e+10       0.608839291         7.22542601         3.48848575        -54.9734561        0.127616913        -43.6334561        0.520458188         83.9963672
1.573e+10       0.611544219         6.93303508         3.47881887        -55.3002618        0.127316461        -43.9282618        0.522837278         83.7137773
1.5735e+10       0.614228541         6.64169126         3.46915559        -55.6260734        0.127015868        -44.2220734        0.525199229         83.4320723
1.574e+10        0.61689236         6.35139107         3.45949657        -55.9508928        0.126715158        -44.5148928        0.527544124         83.1512522
1.5745e+10        0.61953578         6.06213096         3.44984245         -56.274722        0.126414356         -44.806722        0.529872046         82.8713172
1.575e+10       0.622158907         5.77390738         3.44019386        -56.5975631        0.126113483        -45.0975631         0.53218308          82.592267
1.5755e+10       0.624761846         5.48671672         3.43055143        -56.9194183        0.125812564        -45.3874183        0.534477312         82.3141014
1.576e+10       0.627344705         5.20055534         3.42091578        -57.2402897        0.125511621        -45.6762897        0.536754828         82.0368201
1.5765e+10       0.629907593         4.91541956         3.41128749        -57.5601797        0.125210676        -45.9641797        0.539015715         81.7604223
1.577e+10       0.632450619         4.63130566         3.40166717        -57.8790906         0.12490975        -46.2510906        0.541260063         81.4849077
1.5775e+10       0.634973894         4.34820989         3.39205538        -58.1970248        0.124608865        -46.5370248         0.54348796         81.2102753
1.578e+10       0.637477529         4.06612848          3.3824527        -58.5139849        0.124308043        -46.8219849        0.545699496         80.9365244
1.5785e+10       0.639961636          3.7850576         3.37285969        -58.8299735        0.124007304        -47.1059735        0.547894763          80.663654
1.579e+10        0.64242633          3.5049934         3.36327688        -59.1449931        0.123706667        -47.3889931        0.550073852          80.391663
1.5795e+10       0.644871723         3.22593201         3.35370481        -59.4590464        0.123406154        -47.6710464        0.552236856         80.1205502
1.58e+10        0.64729793          2.9478695         3.34414401        -59.7721363        0.123105784        -47.9521363        0.554383867         79.8503144
1.5805e+10       0.649705066         2.67080194         3.33459498        -60.0842654        0.122805576        -48.2322654        0.556514979         79.5809542
1.581e+10       0.652093248         2.39472536         3.32505824        -60.3954367        0.122505549        -48.5114367        0.558630286         79.3124682
1.5815e+10       0.654462592         2.11963576         3.31553428        -60.7056531        0.122205721        -48.7896531        0.560729884         79.0448548
1.582e+10       0.656813214          1.8455291         3.30602357        -61.0149176        0.121906111        -49.0669176        0.562813866         78.7781123
1.5825e+10       0.659145233         1.57240134         3.29652659        -61.3232331        0.121606736        -49.3432331         0.56488233         78.5122391
1.583e+10       0.661458765          1.3002484         3.28704379        -61.6306028        0.121307615        -49.6186028         0.56693537         78.2472333
1.5835e+10       0.663753931         1.02906616         3.27757564        -61.9370298        0.121008763        -49.8930298        0.568973085         77.9830932
1.584e+10       0.666030848        0.758850512         3.26812257        -62.2425172        0.120710199        -50.1665172        0.570995569         77.7198166
1.5845e+10       0.668289636        0.489597295         3.25868502        -62.5470683        0.120411937        -50.4390683        0.573002922         77.4574016
1.585e+10       0.670530413        0.221302338          3.2492634        -62.8506863        0.120113996        -50.7106863        0.574995239         77.1958461
1.5855e+10         0.6727533      -0.0460385535         3.23985813        -63.1533744         0.11981639        -50.9813744         0.57697262          76.935148
1.586e+10       0.674958417       -0.312429593         3.23046961        -63.4551362        0.119519134        -51.2511362        0.578935161         76.6753049
1.5865e+10       0.677145883       -0.577875014         3.22109824        -63.7559748        0.119222245        -51.5199748        0.580882962         76.4163145
1.587e+10       0.679315819        -0.84237907          3.2117444        -64.0558937        0.118925737        -51.7878937        0.582816121         76.1581746
1.5875e+10       0.681468346        -1.10594603         3.20240846        -64.3548964        0.118629623        -52.0548964        0.584734736         75.9008827
1.588e+10       0.683603583        -1.36858018         3.19309079        -64.6529863         0.11833392        -52.3209863        0.586638905         75.6444363
1.5885e+10       0.685721651        -1.63028582         3.18379176        -64.9501671         0.11803864        -52.5861671        0.588528729         75.3888328
1.589e+10       0.687822672        -1.89106727         3.17451169        -65.2464421        0.117743798        -52.8504421        0.590404305         75.1340697
1.5895e+10       0.689906765        -2.15092885         3.16525095         -65.541815        0.117449406         -53.113815        0.592265733         74.8801443
1.59e+10       0.691974051        -2.40987493         3.15600985        -65.8362894        0.117155477        -53.3762894        0.594113111          74.627054
1.5905e+10        0.69402465        -2.66790985         3.14678872        -66.1298689        0.116862024        -53.6378689        0.595946538         74.3747959
1.591e+10       0.696058684        -2.92503797         3.13758788        -66.4225573        0.116569061        -53.8985573        0.597766114         74.1233673
1.5915e+10       0.698076272        -3.18126369         3.12840762        -66.7143581        0.116276597        -54.1583581        0.599571937         73.8727653
1.592e+10       0.700077534        -3.43659138         3.11924825        -67.0052751        0.115984647        -54.4172751        0.601364106         73.6229871
1.5925e+10       0.702062591        -3.69102546         3.11011006         -67.295312        0.115693221         -54.675312         0.60314272         73.3740297
1.593e+10       0.704031563        -3.94457032         3.10099332        -67.5844726         0.11540233        -54.9324726        0.604907877         73.1258902
1.5935e+10       0.705984569        -4.19723038         3.09189832        -67.8727606        0.115111986        -55.1887606        0.606659675         72.8785656
1.594e+10       0.707921728        -4.44901006         3.08282532          -68.16018        0.114822199          -55.44418        0.608398214         72.6320528
1.5945e+10       0.709843161        -4.69991379         3.07377457        -68.4467343         0.11453298        -55.6987343        0.610123591         72.3863487
1.595e+10       0.711748985        -4.94994601         3.06474633        -68.7324276        0.114244338        -55.9524276        0.611835903         72.1414503
1.5955e+10        0.71363932        -5.19911114         3.05574084        -69.0172636        0.113956285        -56.2052636         0.61353525         71.8973545
1.596e+10       0.715514284        -5.44741364         3.04675834        -69.3012463        0.113668829        -56.4572463        0.615221728         71.6540579
1.5965e+10       0.717373995        -5.69485795         3.03779905        -69.5843794        0.113381981        -56.7083794        0.616895435         71.4115575
1.597e+10        0.71921857        -5.94144851         3.02886321        -69.8666669        0.113095749        -56.9586669        0.618556467           71.16985
1.5975e+10       0.721048127        -6.18718978         3.01995102        -70.1481127        0.112810142        -57.2081127        0.620204922         70.9289322
1.598e+10       0.722862784        -6.43208621         3.01106269        -70.4287207        0.112525169        -57.4567207        0.621840895         70.6888007
1.5985e+10       0.724662655        -6.67614224         3.00219843        -70.7084949        0.112240839        -57.7044949        0.623464484         70.4494523
1.599e+10       0.726447858        -6.91936234         2.99335843        -70.9874391        0.111957159        -57.9514391        0.625075784         70.2108837
1.5995e+10       0.728218509        -7.16175094         2.98454287        -71.2655574        0.111674138        -58.1975574         0.62667489         69.9730914
1.6e+10       0.729974722        -7.40331251         2.97575195        -71.5428536        0.111391784        -58.4428536        0.628261898         69.7360722
