! Created Sun Apr  6 20:00:29 2025
# hz S ma R 50
! 2 Port Network Data from SP1.SP block
! freq  magS11  angS11  magS21  angS21  magS12  angS12  magS22  angS22  
!     
8e+09       0.987620466        -51.3770116         1.51135412         46.2287666       0.0381313112        -8.52123345        0.667364403        -134.158408
8.005e+09       0.987548747        -51.8469902         1.51712442         45.8213412       0.0382999919        -8.90505876        0.666081557        -134.358121
8.01e+09       0.987475963        -52.3174736         1.52289192         45.4136564       0.0384687862        -9.28914363        0.664795357        -134.558025
8.015e+09       0.987402105        -52.7884537         1.52865636         45.0057167       0.0386376874        -9.67348325        0.663505819        -134.758118
8.02e+09       0.987327163         -53.259922         1.53441749         44.5975272       0.0388066888        -10.0580728        0.662212958        -134.958398
8.025e+09       0.987251126        -53.7318704         1.54017502         44.1890926       0.0389757835        -10.4429074        0.660916793        -135.158863
8.03e+09       0.987173986        -54.2042904          1.5459287         43.7804178       0.0391449649        -10.8279822        0.659617339        -135.359512
8.035e+09       0.987095733        -54.6771735         1.55167827         43.3715078       0.0393142261        -11.2132922        0.658314615        -135.560342
8.04e+09       0.987016356        -55.1505112         1.55742345         42.9623675       0.0394835604        -11.5988325         0.65700864        -135.761351
8.045e+09       0.986935848        -55.6242949         1.56316398         42.5530019       0.0396529608        -11.9845981        0.655699431        -135.962538
8.05e+09       0.986854199        -56.0985161          1.5688996         42.1434161       0.0398224205        -12.3705839        0.654387007        -136.163901
8.055e+09       0.986771399         -56.573166         1.57463003         41.7336151       0.0399919326        -12.7567849        0.653071389        -136.365437
8.06e+09       0.986687439        -57.0482358         1.58035502          41.323604       0.0401614903         -13.143196        0.651752595        -136.567144
8.065e+09       0.986602311        -57.5237168         1.58607429         40.9133879       0.0403310866        -13.5298121        0.650430647         -136.76902
8.07e+09       0.986516006        -57.9996001         1.59178758          40.502972       0.0405007145         -13.916628        0.649105565        -136.971064
8.075e+09       0.986428515        -58.4758769         1.59749463         40.0923615       0.0406703672        -14.3036385         0.64777737        -137.173273
8.08e+09       0.986339829        -58.9525381         1.60319516         39.6815616       0.0408400376        -14.6908384        0.646446085        -137.375646
8.085e+09        0.98624994        -59.4295748         1.60888892         39.2705775       0.0410097188        -15.0782225         0.64511173        -137.578179
8.09e+09       0.986158839        -59.9069779         1.61457564         38.8594145       0.0411794039        -15.4657855        0.643774329        -137.780871
8.095e+09       0.986066518        -60.3847384         1.62025504         38.4480779       0.0413490858        -15.8535221        0.642433904        -137.983721
8.1e+09        0.98597297         -60.862847         1.62592688          38.036573       0.0415187576         -16.241427         0.64109048        -138.186725
8.105e+09       0.985878186        -61.3412947         1.63159088         37.6249052       0.0416884122        -16.6294948        0.639744079        -138.389882
8.11e+09       0.985782158        -61.8200721         1.63724678         37.2130798       0.0418580427        -17.0177202        0.638394726        -138.593189
8.115e+09       0.985684878          -62.29917         1.64289431         36.8011022        0.042027642        -17.4060978        0.637042446        -138.796645
8.12e+09        0.98558634        -62.7785792         1.64853322         36.3889779       0.0421972031        -17.7946221        0.635687264        -139.000247
8.125e+09       0.985486535        -63.2582902         1.65416324         35.9767123       0.0423667191        -18.1832877        0.634329205        -139.203993
8.13e+09       0.985385456        -63.7382937         1.65978412         35.5643108        0.042536183        -18.5720892        0.632968295        -139.407881
8.135e+09       0.985283096        -64.2185802         1.66539558          35.151779       0.0427055877         -18.961021        0.631604561        -139.611909
8.14e+09       0.985179449        -64.6991404         1.67099738         34.7391223       0.0428749262        -19.3500777        0.630238029        -139.816075
8.145e+09       0.985074507        -65.1799646         1.67658925         34.3263463       0.0430441916        -19.7392537        0.628868727        -140.020376
8.15e+09       0.984968263        -65.6610434         1.68217093         33.9134566       0.0432133769        -20.1285434        0.627496682        -140.224811
8.155e+09       0.984860712        -66.1423672         1.68774217         33.5004586       0.0433824751        -20.5179414        0.626121922        -140.429377
8.16e+09       0.984751846        -66.6239264         1.69330272          33.087358       0.0435514793         -20.907442        0.624744476        -140.634072
8.165e+09        0.98464166        -67.1057115         1.69885231         32.6741604       0.0437203824        -21.2970396        0.623364372        -140.838893
8.17e+09       0.984530147        -67.5877127          1.7043907         32.2608714       0.0438891776        -21.6867286         0.62198164         -141.04384
8.175e+09       0.984417302        -68.0699205         1.70991763         31.8474967        0.044057858        -22.0765033        0.620596309        -141.248909
8.18e+09       0.984303119         -68.552325         1.71543284         31.4340418       0.0442264166        -22.4663582         0.61920841        -141.454098
8.185e+09       0.984187592        -69.0349167          1.7209361         31.0205124       0.0443948465        -22.8562876        0.617817972        -141.659406
8.19e+09       0.984070716        -69.5176857         1.72642716         30.6069143       0.0445631409        -23.2462857        0.616425026         -141.86483
8.195e+09       0.983952487        -70.0006223         1.73190575         30.1932531        0.044731293        -23.6363469        0.615029604        -142.070367
8.2e+09       0.983832898        -70.4837167         1.73737165         29.7795344       0.0448992959        -24.0264656        0.613631737        -142.276016
8.205e+09       0.983711945        -70.9669592         1.74282461         29.3657641       0.0450671428        -24.4166359        0.612231457        -142.481775
8.21e+09       0.983589623        -71.4503398         1.74826437         28.9519478        0.045234827        -24.8068522        0.610828796        -142.687641
8.215e+09       0.983465929        -71.9338489         1.75369071         28.5380912       0.0454023416        -25.1971088        0.609423787        -142.893612
8.22e+09       0.983340857        -72.4174765         1.75910338         28.1242001         0.04556968        -25.5873999        0.608016462        -143.099687
8.225e+09       0.983214404        -72.9012128         1.76450215         27.7102803       0.0457368354        -25.9777197        0.606606856        -143.305862
8.23e+09       0.983086566         -73.385048         1.76988678         27.2963374       0.0459038013        -26.3680626        0.605195001        -143.512136
8.235e+09       0.982957339        -73.8689721         1.77525703         26.8823773       0.0460705709        -26.7584227        0.603780933        -143.718506
8.24e+09       0.982826719        -74.3529753         1.78061267         26.4684057       0.0462371377        -27.1487943        0.602364684        -143.924971
8.245e+09       0.982694704        -74.8370478         1.78595348         26.0544283       0.0464034951        -27.5391717         0.60094629        -144.131529
8.25e+09        0.98256129        -75.3211795         1.79127923         25.6404509       0.0465696366        -27.9295491        0.599525786        -144.338177
8.255e+09       0.982426474        -75.8053608         1.79658968         25.2264793       0.0467355557        -28.3199207        0.598103207        -144.544912
8.26e+09       0.982290253        -76.2895815         1.80188461         24.8125193       0.0469012459        -28.7102807        0.596678588        -144.751734
8.265e+09       0.982152625        -76.7738319         1.80716381         24.3985767       0.0470667009        -29.1006233        0.595251966         -144.95864
8.27e+09       0.982013588        -77.2581021         1.81242705         23.9846571       0.0472319142        -29.4909429        0.593823377        -145.165628
8.275e+09        0.98187314        -77.7423821         1.81767412         23.5707664       0.0473968795        -29.8812336        0.592392858        -145.372695
8.28e+09       0.981731278        -78.2266622         1.82290479         23.1569104       0.0475615905        -30.2714896        0.590960444         -145.57984
8.285e+09          0.981588        -78.7109324         1.82811885         22.7430947        0.047726041        -30.6617053        0.589526174        -145.787061
8.29e+09       0.981443306        -79.1951828          1.8333161         22.3293253       0.0478902249        -31.0518747        0.588090084        -145.994356
8.295e+09       0.981297194        -79.6794036         1.83849633         21.9156077       0.0480541358        -31.4419923        0.586652213        -146.201722
8.3e+09       0.981149663         -80.163585         1.84365932         21.5019479       0.0482177679        -31.8320521        0.585212597        -146.409158
8.305e+09       0.981000712        -80.6477171         1.84880488         21.0883515       0.0483811149        -32.2220485        0.583771276        -146.616662
8.31e+09        0.98085034        -81.1317901         1.85393279         20.6748242       0.0485441709        -32.6119758        0.582328288        -146.824231
8.315e+09       0.980698546        -81.6157941         1.85904287         20.2613718         0.04870693        -33.0018282         0.58088367        -147.031864
8.32e+09       0.980545331        -82.0997195         1.86413492         19.8480001       0.0488693862        -33.3915999        0.579437463        -147.239558
8.325e+09       0.980390694        -82.5835563         1.86920874         19.4347146       0.0490315337        -33.7812854        0.577989705        -147.447313
8.33e+09       0.980234636        -83.0672949         1.87426414         19.0215212       0.0491933668        -34.1708788        0.576540436        -147.655125
8.335e+09       0.980077156        -83.5509255         1.87930094         18.6084256       0.0493548797        -34.5603744        0.575089694        -147.862993
8.34e+09       0.979918255        -84.0344385         1.88431894         18.1954333       0.0495160667        -34.9497667         0.57363752        -148.070916
8.345e+09       0.979757935         -84.517824         1.88931796         17.7825501       0.0496769222        -35.3390499        0.572183954         -148.27889
8.35e+09       0.979596195        -85.0010725         1.89429782         17.3697816       0.0498374407        -35.7282184        0.570729036        -148.486916
8.355e+09       0.979433037        -85.4841743         1.89925835         16.9571335       0.0499976167        -36.1172665        0.569272805        -148.694989
8.36e+09       0.979268462        -85.9671198         1.90419936         16.5446114       0.0501574447        -36.5061886        0.567815303         -148.90311
8.365e+09       0.979102472        -86.4498995         1.90912069         16.1322208       0.0503169194        -36.8949792         0.56635657        -149.111275
8.37e+09       0.978935068        -86.9325037         1.91402217         15.7199674       0.0504760354        -37.2836326        0.564896647        -149.319484
8.375e+09       0.978766253        -87.4149229         1.91890362         15.3078568       0.0506347876        -37.6721432        0.563435574        -149.527734
8.38e+09       0.978596028        -87.8971478         1.92376489         14.8958945       0.0507931707        -38.0605055        0.561973394        -149.736024
8.385e+09       0.978424397        -88.3791687         1.92860581          14.484086       0.0509511797         -38.448714        0.560510146        -149.944352
8.39e+09        0.97825136        -88.8609763         1.93342624         14.0724369       0.0511088094        -38.8367631        0.559045873        -150.152717
8.395e+09       0.978076922        -89.3425612           1.938226         13.6609526        0.051266055        -39.2246474        0.557580615        -150.361116
8.4e+09       0.977901085        -89.8239142         1.94300495         13.2496386       0.0514229115        -39.6123614        0.556114415        -150.569548
8.405e+09       0.977723852        -90.3050257         1.94776294         12.8385004        0.051579374        -39.9998996        0.554647314        -150.778012
8.41e+09       0.977545226        -90.7858867         1.95249982         12.4275434       0.0517354379        -40.3872566        0.553179353        -150.986506
8.415e+09       0.977365212        -91.2664879         1.95721545         12.0167729       0.0518910983        -40.7744271        0.551710575        -151.195028
8.42e+09       0.977183812        -91.7468201         1.96190969         11.6061945       0.0520463507        -41.1614055        0.550241022        -151.403577
8.425e+09        0.97700103        -92.2268742         1.96658241         11.1958134       0.0522011905        -41.5481866        0.548770735        -151.612151
8.43e+09       0.976816872        -92.7066411         1.97123346         10.7856349       0.0523556133        -41.9347651        0.547299756        -151.820749
8.435e+09        0.97663134        -93.1861117         1.97586273         10.3756644       0.0525096145        -42.3211356        0.545828128         -152.02937
8.44e+09        0.97644444        -93.6652771         1.98047007         9.96590714         0.05266319        -42.7072929        0.544355893        -152.238012
8.445e+09       0.976256175        -94.1441284         1.98505537         9.55636834       0.0528163353        -43.0932317        0.542883093        -152.446673
8.45e+09       0.976066552        -94.6226566          1.9896185         9.14705323       0.0529690464        -43.4789468         0.54140977        -152.655352
8.455e+09       0.975875574        -95.1008529         1.99415935         8.73796701        0.053121319         -43.864433        0.539935966        -152.864048
8.46e+09       0.975683247        -95.5787085          1.9986778         8.32911482       0.0532731493        -44.2496852        0.538461724         -153.07276
8.465e+09       0.975489577        -96.0562147         2.00317374          7.9205018       0.0534245331        -44.6346982        0.536987086        -153.281486
8.47e+09       0.975294569        -96.5333628         2.00764705         7.51213305       0.0535754667         -45.019467        0.535512094        -153.490225
8.475e+09       0.975098228        -97.0101442         2.01209764         7.10401361       0.0537259461        -45.4039864        0.534036791        -153.698976
8.48e+09        0.97490056        -97.4865504          2.0165254         6.69614854       0.0538759677        -45.7882515        0.532561218        -153.907738
8.485e+09       0.974701573        -97.9625727         2.02093023         6.28854282       0.0540255279        -46.1722572        0.531085418        -154.116509
8.49e+09        0.97450127        -98.4382029         2.02531203         5.88120143       0.0541746229        -46.5559986        0.529609433        -154.325288
8.495e+09       0.974299661        -98.9134324         2.02967071         5.47412928       0.0543232494        -46.9394707        0.528133306        -154.534075
8.5e+09       0.974096749         -99.388253         2.03400619         5.06733129       0.0544714039        -47.3226687        0.526657077        -154.742867
8.505e+09       0.973892543        -99.8626564         2.03831837         4.66081231       0.0546190831        -47.7055877         0.52518079        -154.951665
8.51e+09        0.97368705        -100.336634         2.04260717         4.25457716       0.0547662836        -48.0882228        0.523704487        -155.160467
8.515e+09       0.973480275        -100.810179         2.04687251         3.84863063       0.0549130024        -48.4705694        0.522228208        -155.369272
8.52e+09       0.973272228        -101.283282         2.05111431         3.44297748       0.0550592362        -48.8526225        0.520751997        -155.578079
8.525e+09       0.973062913        -101.755935          2.0553325         3.03762241       0.0552049821        -49.2343776        0.519275894        -155.786887
8.53e+09        0.97285234        -102.228131         2.05952701         2.63257012       0.0553502371        -49.6158299        0.517799942        -155.995696
8.535e+09       0.972640516        -102.699861         2.06369776         2.22782522       0.0554949984        -49.9969748        0.516324182        -156.204504
8.54e+09       0.972427449        -103.171118          2.0678447         1.82339234       0.0556392631        -50.3778077        0.514848655        -156.413312
8.545e+09       0.972213146        -103.641894         2.07196776         1.41927601       0.0557830285         -50.758324        0.513373404        -156.622117
8.55e+09       0.971997616        -104.112181         2.07606689         1.01548077       0.0559262921        -51.1385192        0.511898468        -156.830919
8.555e+09       0.971780866        -104.581972         2.08014202        0.612011087       0.0560690511        -51.5183889        0.510423889        -157.039718
8.56e+09       0.971562905         -105.05126         2.08419311        0.208871411       0.0562113033        -51.8979286        0.508949709        -157.248512
8.565e+09       0.971343742        -105.520036          2.0882201       -0.193933863       0.0563530461        -52.2771339        0.507475967        -157.457302
8.57e+09       0.971123385        -105.988293         2.09222296       -0.596400378       0.0564942772        -52.6560004        0.506002705        -157.666087
8.575e+09       0.970901842        -106.456025         2.09620163       -0.998523818       0.0566349944        -53.0345238        0.504529964        -157.874865
8.58e+09       0.970679124        -106.923223         2.10015607        -1.40029991       0.0567751956        -53.4126999        0.503057783        -158.083637
8.585e+09       0.970455237        -107.389882         2.10408626        -1.80172443       0.0569148787        -53.7905244        0.501586202        -158.292402
8.59e+09       0.970230192        -107.855992         2.10799215        -2.20279317       0.0570540415        -54.1679932        0.500115263        -158.501159
8.595e+09       0.970003998        -108.321549         2.11187371        -2.60350201       0.0571926823         -54.545102        0.498645004        -158.709909
8.6e+09       0.969776664        -108.786544         2.11573092        -3.00384683       0.0573307992        -54.9218468        0.497175465         -158.91865
8.605e+09       0.969548199         -109.25097         2.11956374        -3.40382359       0.0574683904        -55.2982236        0.495706687        -159.127382
8.61e+09       0.969318612        -109.714822         2.12337217        -3.80342826       0.0576054541        -55.6742283        0.494238707        -159.336105
8.615e+09       0.969087915        -110.178092         2.12715617        -4.20265687       0.0577419889        -56.0498569        0.492771566         -159.54482
8.62e+09       0.968856115        -110.640774         2.13091573        -4.60150551       0.0578779931        -56.4251055        0.491305301        -159.753524
8.625e+09       0.968623223        -111.102861         2.13465085        -4.99997029       0.0580134652        -56.7999703        0.489839953        -159.962219
8.63e+09       0.968389249        -111.564346         2.13836149        -5.39804737       0.0581484039        -57.1744474        0.488375559        -160.170904
8.635e+09       0.968154202        -112.025224         2.14204767        -5.79573297       0.0582828079         -57.548533        0.486912158        -160.379578
8.64e+09       0.967918093        -112.485488         2.14570937        -6.19302335       0.0584166759        -57.9222233        0.485449787        -160.588243
8.645e+09       0.967680932        -112.945131         2.14934659         -6.5899148       0.0585500068        -58.2955148        0.483988484        -160.796897
8.65e+09       0.967442729        -113.404148         2.15295933        -6.98640367       0.0586827994        -58.6684037        0.482528288        -161.005541
8.655e+09       0.967203495        -113.862532         2.15654759        -7.38248636       0.0588150527        -59.0408864        0.481069235        -161.214174
8.66e+09       0.966963239        -114.320278         2.16011139        -7.77815931       0.0589467659        -59.4129593        0.479611362        -161.422797
8.665e+09       0.966721972         -114.77738         2.16365072          -8.173419       0.0590779379         -59.784619        0.478154706         -161.63141
8.67e+09       0.966479705        -115.233831          2.1671656        -8.56826197       0.0592085681         -60.155862        0.476699304        -161.840013
8.675e+09       0.966236448        -115.689626         2.17065604        -8.96268479       0.0593386557        -60.5266848        0.475245192        -162.048606
8.68e+09       0.965992211        -116.144759         2.17412206        -9.35668409          0.0594682        -60.8970841        0.473792406        -162.257189
8.685e+09       0.965747007        -116.599226         2.17756369        -9.75025654       0.0595972005        -61.2670565        0.472340983        -162.465762
8.69e+09       0.965500844        -117.053019         2.18098092        -10.1433989       0.0597256565        -61.6365989        0.470890956        -162.674326
8.695e+09       0.965253735        -117.506134         2.18437381        -10.5361078       0.0598535678        -62.0057078        0.469442363         -162.88288
8.7e+09        0.96500569        -117.958566         2.18774236        -10.9283803       0.0599809338        -62.3743803        0.467995237        -163.091426
8.705e+09       0.964756719        -118.410308         2.19108661         -11.320213       0.0601077544         -62.742613        0.466549614        -163.299964
8.71e+09       0.964506834        -118.861357         2.19440658         -11.711603       0.0602340291         -63.110403        0.465105527        -163.508493
8.715e+09       0.964256047        -119.311707         2.19770233        -12.1025472       0.0603597579        -63.4777472        0.463663011        -163.717015
8.72e+09       0.964004366        -119.761352         2.20097387        -12.4930425       0.0604849407        -63.8446425          0.4622221        -163.925529
8.725e+09       0.963751805        -120.210289         2.20422124        -12.8830861       0.0606095774        -64.2110861        0.460782828        -164.134037
8.73e+09       0.963498374        -120.658512          2.2074445         -13.272675        0.060733668         -64.577075        0.459345227        -164.342538
8.735e+09       0.963244084        -121.106015         2.21064367        -13.6618064       0.0608572126        -64.9426064        0.457909331        -164.551034
8.74e+09       0.962988946        -121.552796         2.21381881        -14.0504774       0.0609802113        -65.3076774        0.456475172        -164.759525
8.745e+09       0.962732972        -121.998849         2.21696996        -14.4386854       0.0611026644        -65.6722854        0.455042782        -164.968012
8.75e+09       0.962476172        -122.444169         2.22009718        -14.8264276       0.0612245721        -66.0364276        0.453612194        -165.176494
8.755e+09       0.962218558        -122.888752          2.2232005        -15.2137013       0.0613459348        -66.4001013         0.45218344        -165.384974
8.76e+09       0.961960142        -123.332594            2.22628        -15.6005039       0.0614667528        -66.7633039         0.45075655        -165.593451
8.765e+09       0.961700934         -123.77569         2.22933572        -15.9868329       0.0615870267        -67.1260329        0.449331557        -165.801927
8.77e+09       0.961440946        -124.218037         2.23236772        -16.3726857       0.0617067568        -67.4882857         0.44790849        -166.010402
8.775e+09       0.961180189         -124.65963         2.23537606        -16.7580598       0.0618259438        -67.8500598         0.44648738        -166.218877
8.78e+09       0.960918674        -125.100464          2.2383608        -17.1429528       0.0619445884        -68.2113528        0.445068258        -166.427353
8.785e+09       0.960656412        -125.540537         2.24132201        -17.5273623       0.0620626911        -68.5721623        0.443651154        -166.635831
8.79e+09       0.960393416        -125.979845         2.24425975        -17.9112861       0.0621802528        -68.9324861        0.442236096        -166.844312
8.795e+09       0.960129696        -126.418382         2.24717409        -18.2947217       0.0622972742        -69.2923217        0.440823114        -167.052796
8.8e+09       0.959865264        -126.856147          2.2500651        -18.6776669       0.0624137562        -69.6516669        0.439412237        -167.261285
8.805e+09        0.95960013        -127.293134         2.25293285        -19.0601196       0.0625296997        -70.0105196        0.438003494        -167.469779
8.81e+09       0.959334307        -127.729342         2.25577741        -19.4420776       0.0626451056        -70.3688776        0.436596913        -167.678281
8.815e+09       0.959067805        -128.164765         2.25859886        -19.8235388        0.062759975        -70.7267388        0.435192522         -167.88679
8.82e+09       0.958800636        -128.599401         2.26139727        -20.2045011       0.0628743089        -71.0841011        0.433790348        -168.095308
8.825e+09       0.958532811        -129.033246         2.26417272        -20.5849625       0.0629881084        -71.4409625        0.432390418        -168.303837
8.83e+09       0.958264341        -129.466298         2.26692529        -20.9649211       0.0631013747        -71.7973211        0.430992761        -168.512376
8.835e+09       0.957995238        -129.898552         2.26965507        -21.3443748        0.063214109        -72.1531748        0.429597402        -168.720929
8.84e+09       0.957725512        -130.330007         2.27236213        -21.7233219       0.0633263125        -72.5085219        0.428204367        -168.929495
8.845e+09       0.957455175        -130.760658         2.27504656        -22.1017605       0.0634379866        -72.8633605        0.426813683        -169.138076
8.85e+09       0.957184239        -131.190504         2.27770844        -22.4796887       0.0635491326        -73.2176887        0.425425375        -169.346673
8.855e+09       0.956912713        -131.619541         2.28034787         -22.857105       0.0636597519         -73.571505        0.424039469        -169.555288
8.86e+09        0.95664061        -132.047766         2.28296493        -23.2340074       0.0637698459        -73.9248074         0.42265599        -169.763922
8.865e+09        0.95636794        -132.475176         2.28555971        -23.6103944       0.0638794162        -74.2775944        0.421274961        -169.972577
8.87e+09       0.956094715         -132.90177          2.2881323        -23.9862644       0.0639884642        -74.6298644        0.419896409        -170.181253
8.875e+09       0.955820945        -133.327544          2.2906828        -24.3616158       0.0640969915        -74.9816158        0.418520356        -170.389953
8.88e+09       0.955546641        -133.752497          2.2932113        -24.7364471       0.0642049998        -75.3328471        0.417146826        -170.598677
8.885e+09       0.955271815        -134.176625         2.29571789        -25.1107567       0.0643124907        -75.6835567        0.415775843        -170.807428
8.89e+09       0.954996477        -134.599926         2.29820267        -25.4845433       0.0644194658        -76.0337433         0.41440743        -171.016207
8.895e+09       0.954720639        -135.022399         2.30066574        -25.8578054        0.064525927        -76.3834054         0.41304161        -171.225015
8.9e+09        0.95444431         -135.44404          2.3031072        -26.2305416       0.0646318759        -76.7325416        0.411678404        -171.433854
8.905e+09       0.954167502        -135.864848         2.30552715        -26.6027507       0.0647373144        -77.0811507        0.410317835        -171.642725
8.91e+09       0.953890225        -136.284821         2.30792569        -26.9744313       0.0648422444        -77.4292313        0.408959925        -171.851631
8.915e+09        0.95361249        -136.703957         2.31030292        -27.3455823       0.0649466677        -77.7767823        0.407604696        -172.060572
8.92e+09       0.953334309        -137.122254         2.31265894        -27.7162024       0.0650505863        -78.1238024        0.406252167        -172.269552
8.925e+09        0.95305569         -137.53971         2.31499386        -28.0862905        0.065154002        -78.4702905        0.404902361         -172.47857
8.93e+09       0.952776645        -137.956323         2.31730779        -28.4558455       0.0652569169        -78.8162455        0.403555297         -172.68763
8.935e+09       0.952497185        -138.372092         2.31960083        -28.8248662       0.0653593329        -79.1616662        0.402210996        -172.896732
8.94e+09        0.95221732        -138.787015         2.32187308        -29.1933517       0.0654612522        -79.5065517        0.400869478        -173.105879
8.945e+09       0.951937059        -139.201091         2.32412466        -29.5613009       0.0655626768        -79.8509009        0.399530761        -173.315073
8.95e+09       0.951656414        -139.614317         2.32635568        -29.9287129       0.0656636089        -80.1947129        0.398194867        -173.524314
8.955e+09       0.951375394        -140.026694         2.32856624        -30.2955868       0.0657640504        -80.5379868        0.396861812        -173.733606
8.96e+09       0.951094011        -140.438218         2.33075645        -30.6619217       0.0658640038        -80.8807217        0.395531616         -173.94295
8.965e+09       0.950812273         -140.84889         2.33292643        -31.0277168        0.065963471        -81.2229168        0.394204298        -174.152348
8.97e+09       0.950530191        -141.258707         2.33507629        -31.3929712       0.0660624544        -81.5645712        0.392879875        -174.361802
8.975e+09       0.950247776        -141.667669         2.33720614        -31.7576842       0.0661609562        -81.9056842        0.391558365        -174.571313
8.98e+09       0.949965036        -142.075775         2.33931609         -32.121855       0.0662589786         -82.246255        0.390239785        -174.780885
8.985e+09       0.949681982        -142.483024         2.34140626         -32.485483       0.0663565241         -82.586283        0.388924152        -174.990518
8.99e+09       0.949398624        -142.889414         2.34347676        -32.8485675       0.0664535948        -82.9257675        0.387611484        -175.200216
8.995e+09       0.949114971        -143.294944         2.34552771        -33.2111078       0.0665501932        -83.2647078        0.386301797        -175.409979
9e+09       0.948831033        -143.699615         2.34755922        -33.5731035       0.0666463216        -83.6031035        0.384995106         -175.61981
9.005e+09       0.948546542        -144.103708         2.34955193        -33.9342326        0.066741919        -83.9406326        0.383662899        -175.827189
9.01e+09       0.948261794         -144.50694         2.35152515        -34.2948155       0.0668370441        -84.2776155        0.382333752          -176.0346
9.015e+09       0.947976796         -144.90931           2.353479        -34.6548516       0.0669316993        -84.6140516        0.381007681        -176.242045
9.02e+09       0.947691559        -145.310817         2.35541359        -35.0143403       0.0670258869        -84.9499403        0.379684702        -176.449526
9.025e+09       0.947406092        -145.711462         2.35732905        -35.3732812       0.0671196097        -85.2852812        0.378364831        -176.657046
9.03e+09       0.947120404        -146.111244          2.3592255        -35.7316739       0.0672128699        -85.6200739        0.377048084        -176.864605
9.035e+09       0.946834505        -146.510162         2.36110305        -36.0895181       0.0673056703        -85.9543181        0.375734474        -177.072207
9.04e+09       0.946548403        -146.908216         2.36296183        -36.4468132       0.0673980133        -86.2880132        0.374424018        -177.279853
9.045e+09       0.946262107        -147.305405         2.36480197         -36.803559       0.0674899015         -86.621159        0.373116729        -177.487545
9.05e+09       0.945975627         -147.70173         2.36662357        -37.1597553       0.0675813375        -86.9537553        0.371812621        -177.695285
9.055e+09       0.945688972        -148.097189         2.36842677        -37.5154017       0.0676723239        -87.2858017        0.370511709        -177.903076
9.06e+09        0.94540215        -148.491784         2.37021169        -37.8704981       0.0677628633        -87.6172981        0.369214005        -178.110918
9.065e+09       0.945115169        -148.885514         2.37197844        -38.2250441       0.0678529583        -87.9482441        0.367919524        -178.318815
9.07e+09       0.944828039        -149.278379         2.37372715        -38.5790398       0.0679426116        -88.2786398        0.366628278        -178.526769
9.075e+09       0.944540769        -149.670378         2.37545795        -38.9324848       0.0680318259        -88.6084848         0.36534028        -178.734781
9.08e+09       0.944253366        -150.061512         2.37717095        -39.2853792       0.0681206038        -88.9377792        0.364055543        -178.942854
9.085e+09       0.943965839        -150.451782         2.37886629        -39.6377229        0.068208948        -89.2665229        0.362774078         -179.15099
9.09e+09       0.943678197        -150.841187         2.38054408        -39.9895157       0.0682968612        -89.5947157        0.361495898        -179.359191
9.095e+09       0.943390447        -151.229727         2.38220444        -40.3407577       0.0683843461        -89.9223577        0.360221015         -179.56746
9.1e+09       0.943102598        -151.617403          2.3838475        -40.6914489       0.0684714055        -90.2494489        0.358949439        -179.775798
9.105e+09       0.942814658        -152.004215         2.38547339        -41.0415894        0.068558042        -90.5759894        0.357681183        -179.984208
9.11e+09       0.942526634        -152.390164         2.38708223        -41.3911792       0.0686442584        -90.9019792        0.356416256         179.807308
9.115e+09       0.942238536        -152.775249         2.38867414        -41.7402184       0.0687300575        -91.2274184         0.35515467         179.598748
9.12e+09        0.94195037        -153.159472         2.39024924        -42.0887071       0.0688154419        -91.5523071        0.353896435         179.390109
9.125e+09       0.941662145        -153.542832         2.39180767        -42.4366455       0.0689004145        -91.8766455        0.352641561          179.18139
9.13e+09       0.941373868        -153.925331         2.39334953        -42.7840338       0.0689849781        -92.2004338        0.351390058         178.972587
9.135e+09       0.941085546        -154.306969         2.39487497        -43.1308722       0.0690691354        -92.5236722        0.350141936         178.763698
9.14e+09       0.940797188        -154.687747         2.39638409        -43.4771608       0.0691528891        -92.8463608        0.348897205         178.554722
9.145e+09         0.9405088        -155.067665         2.39787703        -43.8229001       0.0692362421        -93.1685001        0.347655873         178.345656
9.15e+09        0.94022039        -155.446724         2.39935391        -44.1680902       0.0693191972        -93.4900902         0.34641795         178.136497
9.155e+09       0.939931966        -155.824925         2.40081485        -44.5127315       0.0694017572        -93.8111315        0.345183444         177.927243
9.16e+09       0.939643533        -156.202268         2.40225997        -44.8568242       0.0694839249        -94.1316242        0.343952363         177.717892
9.165e+09       0.939355101        -156.578755          2.4036894        -45.2003688        0.069565703        -94.4515688        0.342724717         177.508441
9.17e+09       0.939066674        -156.954387         2.40510327        -45.5433657       0.0696470945        -94.7709657        0.341500513         177.298888
9.175e+09       0.938778261        -157.329164         2.40650168        -45.8858152        0.069728102        -95.0898152        0.340279759         177.089231
9.18e+09       0.938489868        -157.703087         2.40788478        -46.2277178       0.0698087285        -95.4081178        0.339062463         176.879466
9.185e+09       0.938201503        -158.076158         2.40925267        -46.5690739       0.0698889767        -95.7258739        0.337848632         176.669592
9.19e+09        0.93791317        -158.448377         2.41060548         -46.909884       0.0699688494         -96.043084        0.336638273         176.459607
9.195e+09       0.937624878        -158.819745         2.41194334        -47.2501485       0.0700483495        -96.3597485        0.335431394         176.249506
9.2e+09       0.937336633        -159.190264         2.41326636        -47.5898682       0.0701274798        -96.6758682           0.334228         176.039289
9.205e+09       0.937048441        -159.559936         2.41457467        -47.9290433       0.0702062431        -96.9914433          0.3330281         175.828953
9.21e+09       0.936760308         -159.92876         2.41586839        -48.2676746       0.0702846423        -97.3064746        0.331831699         175.618495
9.215e+09       0.936472241        -160.296738         2.41714764        -48.6057626         0.07036268        -97.6209626        0.330638803         175.407913
9.22e+09       0.936184246        -160.663872         2.41841253        -48.9433079       0.0704403593        -97.9349079        0.329449419         175.197203
9.225e+09       0.935896329        -161.030163          2.4196632        -49.2803111       0.0705176828        -98.2483111        0.328263552         174.986365
9.23e+09       0.935608495        -161.395612         2.42089975        -49.6167729       0.0705946534        -98.5611729        0.327081208         174.775394
9.235e+09       0.935320752        -161.760221         2.42212232         -49.952694       0.0706712739         -98.873494        0.325902392         174.564289
9.24e+09       0.935033105        -162.123991         2.42333101         -50.288075       0.0707475472         -99.185275         0.32472711         174.353047
9.245e+09       0.934745559        -162.486923         2.42452596        -50.6229166       0.0708234759        -99.4965166        0.323555367         174.141666
9.25e+09        0.93445812        -162.849019         2.42570726        -50.9572195        0.070899063        -99.8072195        0.322387167         173.930142
9.255e+09       0.934170794        -163.210281         2.42687506        -51.2909845       0.0709743112        -100.117385        0.321222515         173.718473
9.26e+09       0.933883586         -163.57071         2.42802945        -51.6242124       0.0710492232        -100.427012        0.320061416         173.506658
9.265e+09       0.933596502        -163.930307         2.42917057        -51.9569039        0.071123802        -100.736104        0.318903875         173.294692
9.27e+09       0.933309547        -164.289074         2.43029852        -52.2890598       0.0711980503         -101.04466        0.317749895         173.082574
9.275e+09       0.933022727        -164.647013         2.43141343        -52.6206809       0.0712719708        -101.352681        0.316599481         172.870301
9.28e+09       0.932736046        -165.004126         2.43251541        -52.9517681       0.0713455664        -101.660168        0.315452636          172.65787
9.285e+09        0.93244951        -165.360414         2.43360457        -53.2823221       0.0714188398        -101.967122        0.314309364         172.445278
9.29e+09       0.932163123        -165.715878         2.43468104        -53.6123439       0.0714917938        -102.273544        0.313169668         172.232524
9.295e+09       0.931876891        -166.070521         2.43574491        -53.9418344       0.0715644311        -102.579434        0.312033553         172.019604
9.3e+09       0.931590819        -166.424345         2.43679632        -54.2707943       0.0716367545        -102.884794        0.310901022         171.806516
9.305e+09       0.931304912         -166.77735         2.43783538        -54.5992247       0.0717087667        -103.189625        0.309772076         171.593258
9.31e+09       0.931019173         -167.12954         2.43886219        -54.9271264       0.0717804705        -103.493926        0.308646721         171.379825
9.315e+09       0.930733608        -167.480915         2.43987687        -55.2545004       0.0718518686          -103.7977        0.307524957         171.166217
9.32e+09       0.930448222        -167.831478         2.44087953        -55.5813476       0.0719229637        -104.100948        0.306406788         170.952429
9.325e+09       0.930163019         -168.18123         2.44187029         -55.907669       0.0719937585        -104.403669        0.305292217          170.73846
9.33e+09       0.929878003        -168.530174         2.44284925        -56.2334656       0.0720642557        -104.705866        0.304181246         170.524307
9.335e+09       0.929593179        -168.878311         2.44381653        -56.5587383       0.0721344581        -105.007538        0.303073877         170.309968
9.34e+09        0.92930855        -169.225643         2.44477223        -56.8834882       0.0722043684        -105.308688        0.301970112         170.095438
9.345e+09       0.929024122        -169.572173         2.44571648        -57.2077163       0.0722739891        -105.609316        0.300869953         169.880717
9.35e+09       0.928739899        -169.917902         2.44664936        -57.5314236        0.072343323        -105.909424        0.299773402         169.665801
9.355e+09       0.928455883        -170.262832         2.44757101        -57.8546112       0.0724123728        -106.209011        0.298680462         169.450687
9.36e+09       0.928172081        -170.606966         2.44848151        -58.1772801       0.0724811411         -106.50808        0.297591132         169.235373
9.365e+09       0.927888494        -170.950305         2.44938099        -58.4994314       0.0725496305        -106.806631        0.296505416         169.019857
9.37e+09       0.927605128        -171.292852         2.45026954        -58.8210661       0.0726178437        -107.104666        0.295423314         168.804134
9.375e+09       0.927321985        -171.634608         2.45114728        -59.1421854       0.0726857833        -107.402185        0.294344827         168.588204
9.38e+09       0.927039071        -171.975575         2.45201431        -59.4627904       0.0727534519         -107.69919        0.293269957         168.372063
9.385e+09       0.926756388        -172.315757         2.45287073        -59.7828821       0.0728208522        -107.995682        0.292198705         168.155708
9.39e+09       0.926473939        -172.655154         2.45371665        -60.1024617       0.0728879867        -108.291662        0.291131071         167.939136
9.395e+09       0.926191729         -172.99377         2.45455218        -60.4215304       0.0729548579         -108.58713        0.290067057         167.722346
9.4e+09       0.925909761        -173.331606         2.45537741        -60.7400893       0.0730214686        -108.882089        0.289006663         167.505334
9.405e+09       0.925628039        -173.668664         2.45619245        -61.0581395       0.0730878212        -109.176539         0.28794989         167.288098
9.41e+09       0.925346564        -174.004947         2.45699741        -61.3756821       0.0731539183        -109.470482        0.286896738         167.070635
9.415e+09       0.925065342        -174.340457         2.45779238        -61.6927185       0.0732197624        -109.763918        0.285847207         166.852942
9.42e+09       0.924784375        -174.675197         2.45857747        -62.0092497        0.073285356         -110.05685        0.284801299         166.635016
9.425e+09       0.924503665        -175.009167         2.45935277         -62.325277       0.0733507018        -110.349277        0.283759012         166.416856
9.43e+09       0.924223217        -175.342372         2.46011839        -62.6408015       0.0734158021        -110.641201        0.282720348         166.198458
9.435e+09       0.923943033        -175.674813         2.46087443        -62.9558245       0.0734806595        -110.932624        0.281685305         165.979819
9.44e+09       0.923663116        -176.006491         2.46162098        -63.2703471       0.0735452765        -111.223547        0.280653885         165.760937
9.445e+09       0.923383469        -176.337411         2.46235814        -63.5843707       0.0736096555        -111.513971        0.279626087         165.541809
9.45e+09       0.923104095        -176.667573         2.46308601        -63.8978964        0.073673799        -111.803896         0.27860191         165.322432
9.455e+09       0.922824996        -176.996981          2.4638047        -64.2109255       0.0737377095        -112.093326        0.277581355         165.102805
9.46e+09       0.922546175        -177.325637         2.46451428        -64.5234593       0.0738013893        -112.382259         0.27656442         164.882923
9.465e+09       0.922267635        -177.653542         2.46521486        -64.8354989       0.0738648408        -112.670699        0.275551106         164.662785
9.47e+09       0.921989378          -177.9807         2.46590654        -65.1470457       0.0739280666        -112.958646        0.274541412         164.442388
9.475e+09       0.921711407        -178.307113         2.46658941        -65.4581009        0.073991069        -113.246101        0.273535336         164.221729
9.48e+09       0.921433724        -178.632783         2.46726356        -65.7686659       0.0740538504        -113.533066        0.272532879         164.000805
9.485e+09       0.921156332        -178.957713         2.46792908        -66.0787418       0.0741164131        -113.819542        0.271534039         163.779615
9.49e+09       0.920879233        -179.281904         2.46858608          -66.38833       0.0741787596         -114.10553        0.270538816         163.558154
9.495e+09       0.920602429         -179.60536         2.46923463        -66.6974318       0.0742408921        -114.391032        0.269547209         163.336421
9.5e+09       0.920325922        -179.928083         2.46987483        -67.0060485        0.074302813        -114.676049        0.268559216         163.114412
9.505e+09       0.920049715         179.749925         2.47050678        -67.3141814       0.0743645246        -114.960581        0.267574836         162.892126
9.51e+09        0.91977381         179.428661         2.47113056        -67.6218318       0.0744260292        -115.244632        0.266594069         162.669559
9.515e+09       0.919498208         179.108122         2.47174626         -67.929001       0.0744873292        -115.528201        0.265616912          162.44671
9.52e+09       0.919222912         178.788307         2.47235397        -68.2356904       0.0745484267         -115.81129        0.264643366         162.223575
9.525e+09       0.918947924         178.469213         2.47295378        -68.5419013       0.0746093241        -116.093901        0.263673427         162.000151
9.53e+09       0.918673245         178.150837         2.47354578         -68.847635       0.0746700236        -116.376035        0.262707096         161.776437
9.535e+09       0.918398877         177.833177         2.47413005        -69.1528929       0.0747305275        -116.657693        0.261744369         161.552429
9.54e+09       0.918124823          177.51623         2.47470667        -69.4576763        0.074790838        -116.938876        0.260785247         161.328125
9.545e+09       0.917851083         177.199994         2.47527575        -69.7619866       0.0748509572        -117.219587        0.259829727         161.103522
9.55e+09        0.91757766         176.884466         2.47583735         -70.065825       0.0749108875        -117.499825        0.258877807         160.878618
9.555e+09       0.917304555         176.569644         2.47639157        -70.3691931        0.074970631        -117.779593        0.257929486         160.653411
9.56e+09        0.91703177         176.255526         2.47693848         -70.672092       0.0750301898        -118.058892        0.256984762         160.427896
9.565e+09       0.916759306         175.942108         2.47747818        -70.9745233       0.0750895662        -118.337723        0.256043634         160.202073
9.57e+09       0.916487165         175.629388         2.47801074        -71.2764882       0.0751487622        -118.616088        0.255106098         159.975939
9.575e+09       0.916215348         175.317364         2.47853624        -71.5779882         0.07520778        -118.893988        0.254172154         159.749491
9.58e+09       0.915943857         175.006033         2.47905477        -71.8790246       0.0752666218        -119.171425          0.2532418         159.522726
9.585e+09       0.915672692         174.695393         2.47956641        -72.1795988       0.0753252896        -119.448399        0.252315033         159.295642
9.59e+09       0.915401856         174.385441         2.48007124        -72.4797121       0.0753837855        -119.724912        0.251391851         159.068236
9.595e+09       0.915131349         174.076174         2.48056933         -72.779366       0.0754421116        -120.000966        0.250472252         158.840506
9.6e+09       0.914861173          173.76759         2.48106077        -73.0785619         0.07550027        -120.276562        0.249556234          158.61245
9.605e+09       0.914591329         173.459687         2.48154563        -73.3773011       0.0755582628        -120.551701        0.248643795         158.384065
9.61e+09       0.914321818         173.152461         2.48202399         -73.675585       0.0756160919        -120.826385        0.247734933         158.155348
9.615e+09       0.914052641          172.84591         2.48249594         -73.973415       0.0756737594        -121.100615        0.246829645         157.926298
9.62e+09       0.913783799         172.540033         2.48296153        -74.2707926       0.0757312673        -121.374393        0.245927929         157.696911
9.625e+09       0.913515292         172.234825         2.48342086         -74.567719       0.0757886176        -121.647719        0.245029783         157.467185
9.63e+09       0.913247123         171.930285         2.48387399        -74.8641958       0.0758458122        -121.920596        0.244135204         157.237118
9.635e+09       0.912979292         171.626409           2.484321        -75.1602243       0.0759028533        -122.193024        0.243244189         157.006708
9.64e+09         0.9127118         171.323196         2.48476196        -75.4558059       0.0759597426        -122.465006        0.242356737         156.775952
9.645e+09       0.912444647         171.020643         2.48519695        -75.7509421       0.0760164822        -122.736542        0.241472845         156.544847
9.65e+09       0.912177834         170.718747         2.48562604        -76.0456342        0.076073074        -123.007634         0.24059251         156.313391
9.655e+09       0.911911363         170.417506          2.4860493        -76.3398836       0.0761295199        -123.278284        0.239715729         156.081583
9.66e+09       0.911645234         170.116917         2.48646681        -76.6336918       0.0761858218        -123.548492        0.238842501         155.849419
9.665e+09       0.911379447         169.816977         2.48687863        -76.9270601       0.0762419817         -123.81826        0.237972822         155.616898
9.67e+09       0.911114003         169.517684         2.48728483          -77.21999       0.0762980012         -124.08759         0.23710669         155.384016
9.675e+09       0.910848903         169.219036         2.48768549        -77.5124829       0.0763538825        -124.356483        0.236244102         155.150773
9.68e+09       0.910584147         168.921029         2.48808066        -77.8045402       0.0764096272         -124.62494        0.235385055         154.917164
9.685e+09       0.910319736         168.623661         2.48847043        -78.0961632       0.0764652372        -124.892963        0.234529547         154.683189
9.69e+09        0.91005567          168.32693         2.48885486        -78.3873535       0.0765207144        -125.160554        0.233677575         154.448845
9.695e+09        0.90979195         168.030833         2.48923402        -78.6781125       0.0765760605        -125.427712        0.232829136          154.21413
9.7e+09       0.909528576         167.735368         2.48960797        -78.9684414       0.0766312774        -125.694441        0.231984226         153.979042
9.705e+09       0.909265549         167.440531         2.48997678        -79.2583419       0.0766863669        -125.960742        0.231142845         153.743577
9.71e+09       0.909002868          167.14632         2.49034051        -79.5478152       0.0767413306        -126.226615        0.230304987         153.507735
9.715e+09       0.908740535         166.852734         2.49069924        -79.8368628       0.0767961704        -126.492063        0.229470651         153.271514
9.72e+09       0.908478549         166.559768         2.49105302        -80.1254861        0.076850888        -126.757086        0.228639834          153.03491
9.725e+09       0.908216911         166.267421         2.49140192        -80.4136866       0.0769054852        -127.021687        0.227812532         152.797922
9.73e+09       0.907955621          165.97569           2.491746        -80.7014655       0.0769599636        -127.285866        0.226988742         152.560548
9.735e+09       0.907694679         165.684572         2.49208532        -80.9888244        0.077014325        -127.549624        0.226168463         152.322786
9.74e+09       0.907434085         165.394065         2.49241995        -81.2757647        0.077068571        -127.812965        0.225351689         152.084634
9.745e+09        0.90717384         165.104167         2.49274995        -81.5622877       0.0771227033        -128.075888         0.22453842         151.846089
9.75e+09       0.906913943         164.814874         2.49307538        -81.8483949       0.0771767236        -128.338395        0.223728651          151.60715
9.755e+09       0.906654395         164.526184         2.49339631        -82.1340877       0.0772306336        -128.600488        0.222922379         151.367815
9.76e+09       0.906395195         164.238095         2.49371278        -82.4193675       0.0772844349        -128.862167        0.222119601         151.128081
9.765e+09       0.906136344         163.950604         2.49402486        -82.7042357       0.0773381291        -129.123436        0.221320315         150.887948
9.77e+09       0.905877842         163.663709         2.49433261        -82.9886937       0.0773917178        -129.384294        0.220524517         150.647412
9.775e+09       0.905619688         163.377406         2.49463609         -83.272743       0.0774452026        -129.644743        0.219732203         150.406473
9.78e+09       0.905361882         163.091694         2.49493535        -83.5563848       0.0774985852        -129.904785        0.218943371         150.165128
9.785e+09       0.905104425          162.80657         2.49523046        -83.8396207       0.0775518671        -130.164421        0.218158017         149.923375
9.79e+09       0.904847316         162.522031         2.49552146        -84.1224521       0.0776050498        -130.423652        0.217376139         149.681213
9.795e+09       0.904590555         162.238075         2.49580842        -84.4048803       0.0776581349         -130.68248        0.216597732          149.43864
9.8e+09       0.904334142         161.954699          2.4960914        -84.6869067        0.077711124        -130.940907        0.215822795         149.195654
9.805e+09       0.904078077         161.671902         2.49637043        -84.9685327       0.0777640186        -131.198933        0.215051322         148.952254
9.81e+09       0.903822359         161.389679          2.4966456        -85.2497598       0.0778168201         -131.45656        0.214283312         148.708437
9.815e+09       0.903566988         161.108029         2.49691693        -85.5305894       0.0778695302        -131.713789        0.213518761         148.464202
9.82e+09       0.903311964         160.826949          2.4971845        -85.8110227       0.0779221502        -131.970623        0.212757665         148.219548
9.825e+09       0.903057287         160.546438         2.49744835        -86.0910613       0.0779746817        -132.227061        0.212000021         147.974472
9.83e+09       0.902802956         160.266491         2.49770853        -86.3707064       0.0780271261        -132.483106        0.211245826         147.728974
9.835e+09        0.90254897         159.987107          2.4979651        -86.6499596       0.0780794849         -132.73876        0.210495077         147.483051
9.84e+09        0.90229533         159.708283         2.49821812        -86.9288221       0.0781317595        -132.994022        0.209747769         147.236702
9.845e+09       0.902042036         159.430017         2.49846762        -87.2072954       0.0781839514        -133.248895        0.209003901         146.989927
9.85e+09       0.901789085         159.152307         2.49871366        -87.4853809        0.078236062        -133.503381        0.208263467         146.742722
9.855e+09       0.901536479         158.875149          2.4989563        -87.7630798       0.0782880926         -133.75748        0.207526465         146.495087
9.86e+09       0.901284217         158.598541         2.49919557        -88.0403937       0.0783400447        -134.011194        0.206792892         146.247021
9.865e+09       0.901032298         158.322481         2.49943154        -88.3173239       0.0783919196        -134.264524        0.206062743         145.998521
9.87e+09       0.900780722         158.046967         2.49966424        -88.5938717       0.0784437188        -134.517472        0.205336016         145.749588
9.875e+09       0.900529488         157.771996         2.49989374        -88.8700385       0.0784954436        -134.770039        0.204612707         145.500218
9.88e+09       0.900278595         157.497565         2.50012007        -89.1458258       0.0785470953        -135.022226        0.203892812         145.250412
9.885e+09       0.900028044         157.223672         2.50034328        -89.4212348       0.0785986753        -135.274035        0.203176327         145.000168
9.89e+09       0.899777833         156.950315         2.50056342        -89.6962669       0.0786501848        -135.525467        0.202463251         144.749485
9.895e+09       0.899527962         156.677491         2.50078054        -89.9709235       0.0787016253        -135.776523        0.201753577         144.498361
9.9e+09        0.89927843         156.405197         2.50099469        -90.2452059        0.078752998        -136.027206        0.201047304         144.246796
9.905e+09       0.899029237         156.133432          2.5012059        -90.5191156       0.0788043042        -136.277516        0.200344428         143.994788
9.91e+09       0.898780382         155.862193         2.50141422        -90.7926538       0.0788555452        -136.527454        0.199644944         143.742336
9.915e+09       0.898531864         155.591477          2.5016197        -91.0658219       0.0789067222        -136.777022         0.19894885          143.48944
9.92e+09       0.898283682         155.321283         2.50182238        -91.3386213       0.0789578366        -137.026221        0.198256142         143.236098
9.925e+09       0.898035836         155.051607         2.50202231        -91.6110532       0.0790088895        -137.275053        0.197566815          142.98231
9.93e+09       0.897788326         154.782448         2.50221953        -91.8831191       0.0790598822        -137.523519        0.196880867         142.728074
9.935e+09       0.897541149         154.513802         2.50241408        -92.1548203        0.079110816         -137.77162        0.196198294          142.47339
9.94e+09       0.897294306         154.245668           2.502606        -92.4261581        0.079161692        -138.019358        0.195519091         142.218257
9.945e+09       0.897047796         153.978043         2.50279534        -92.6971338       0.0792125114        -138.266734        0.194843256         141.962674
9.95e+09       0.896801618         153.710925         2.50298214        -92.9677488       0.0792632755        -138.513749        0.194170784          141.70664
9.955e+09       0.896555771         153.444311         2.50316644        -93.2380044       0.0793139853        -138.760404        0.193501672         141.450155
9.96e+09       0.896310254         153.178199         2.50334828         -93.507902       0.0793646422        -139.006702        0.192835916         141.193219
9.965e+09       0.896065067         152.912588         2.50352769        -93.7774428       0.0794152473        -139.252643        0.192173512         140.935829
9.97e+09       0.895820208         152.647473         2.50370473        -94.0466282       0.0794658016        -139.498228        0.191514456         140.677987
9.975e+09       0.895575677         152.382854         2.50387943        -94.3154594       0.0795163064        -139.743459        0.190858745         140.419692
9.98e+09       0.895331473         152.118727         2.50405183        -94.5839379       0.0795667628        -139.988338        0.190206374         140.160942
9.985e+09       0.895087595         151.855091         2.50422196        -94.8520648       0.0796171719        -140.232865         0.18955734         139.901738
9.99e+09       0.894844041         151.591943         2.50438987        -95.1198416       0.0796675348        -140.477042        0.188911639         139.642079
9.995e+09       0.894600812         151.329281          2.5045556        -95.3872695       0.0797178526         -140.72087        0.188269268         139.381964
1e+10       0.894357906         151.067102         2.50471917        -95.6543498       0.0797681265         -140.96435        0.187630221         139.121395
1.0005e+10       0.894118007         150.804961         2.50484132        -95.9209693       0.0798114334        -141.207369        0.186952891         138.860826
1.001e+10       0.893878455         150.543299         2.50496128        -96.1872428       0.0798546913        -141.450043        0.186278899         138.599811
1.0015e+10       0.893639249         150.282114         2.50507909        -96.4531716       0.0798979012        -141.692372        0.185608241         138.338351
1.002e+10       0.893400388         150.021403         2.50519479         -96.718757       0.0799410643        -141.934357        0.184940913         138.076444
1.0025e+10        0.89316187         149.761163         2.50530841        -96.9840002       0.0799841818           -142.176        0.184276911          137.81409
1.003e+10       0.892923695         149.501394         2.50541999        -97.2489025       0.0800272545        -142.417303        0.183616232         137.551289
1.0035e+10       0.892685861         149.242092         2.50552957        -97.5134652       0.0800702837        -142.658265        0.182958872          137.28804
1.004e+10       0.892448366         148.983255         2.50563718        -97.7776894       0.0801132705        -142.898889        0.182304826         137.024343
1.0045e+10        0.89221121         148.724881         2.50574285        -98.0415766       0.0801562157        -143.139177        0.181654091         136.760199
1.005e+10       0.891974392         148.466967         2.50584664        -98.3051278       0.0801991206        -143.379128        0.181006663         136.495605
1.0055e+10        0.89173791         148.209513         2.50594856        -98.5683445       0.0802419861        -143.618744        0.180362537         136.230564
1.006e+10       0.891501762         147.952514         2.50604865        -98.8312277       0.0802848133        -143.858028         0.17972171         135.965073
1.0065e+10       0.891265949          147.69597         2.50614695        -99.0937788       0.0803276032        -144.096979        0.179084178         135.699134
1.007e+10       0.891030467         147.439877         2.50624348         -99.355999       0.0803703567        -144.335599        0.178449936         135.432746
1.0075e+10       0.890795317         147.184234         2.50633829        -99.6178895        0.080413075        -144.573889         0.17781898          135.16591
1.008e+10       0.890560496         146.929039         2.50643141        -99.8794515       0.0804557589        -144.811852        0.177191307         134.898624
1.0085e+10       0.890326004         146.674288         2.50652287        -100.140686       0.0804984094        -145.049486        0.176566912         134.630891
1.009e+10       0.890091838         146.419981          2.5066127        -100.401595       0.0805410276        -145.286795        0.175945791         134.362709
1.0095e+10       0.889857999         146.166115         2.50670093        -100.662179       0.0805836144        -145.523779        0.175327939         134.094079
1.01e+10       0.889624484         145.912688         2.50678759         -100.92244       0.0806261707         -145.76044        0.174713353         133.825001
1.0105e+10       0.889391292         145.659697         2.50687272        -101.182378       0.0806686975        -145.996778        0.174102028         133.555475
1.011e+10       0.889158421         145.407141         2.50695635        -101.441995       0.0807111957        -146.232795        0.173493959         133.285503
1.0115e+10       0.888925871         145.155017          2.5070385        -101.701292       0.0807536662        -146.468492        0.172889143         133.015084
1.012e+10        0.88869364         144.903323         2.50711922        -101.960271         0.08079611        -146.703871        0.172287575         132.744219
1.0125e+10       0.888461726         144.652058         2.50719852        -102.218932        0.080838528        -146.938932         0.17168925         132.472908
1.013e+10       0.888230129         144.401218         2.50727643        -102.477276        0.080880921        -147.173676        0.171094164         132.201153
1.0135e+10       0.887998846         144.150803         2.50735299        -102.735306         0.08092329        -147.408106        0.170502313         131.928953
1.014e+10       0.887767876         143.900809         2.50742823        -102.993021       0.0809656358        -147.642221        0.169913691         131.656309
1.0145e+10       0.887537219         143.651235         2.50750217        -103.250424       0.0810079593        -147.876024        0.169328295         131.383223
1.015e+10       0.887306872         143.402078         2.50757485        -103.507515       0.0810502614        -148.109515         0.16874612         131.109694
1.0155e+10       0.887076834         143.153337         2.50764628        -103.764296       0.0810925429        -148.342696        0.168167161         130.835725
1.016e+10       0.886847104          142.90501          2.5077165        -104.020767       0.0811348047        -148.575567        0.167591413         130.561315
1.0165e+10        0.88661768         142.657094         2.50778553        -104.276931       0.0811770476        -148.808131        0.167018872         130.286467
1.017e+10        0.88638856         142.409587         2.50785341        -104.532788       0.0812192724        -149.040388        0.166449533          130.01118
1.0175e+10       0.886159744         142.162488         2.50792016        -104.788339         0.08126148        -149.272339         0.16588339         129.735456
1.018e+10        0.88593123         141.915794          2.5079858        -105.043585       0.0813036713        -149.503985         0.16532044         129.459297
1.0185e+10       0.885703016         141.669503         2.50805036        -105.298528       0.0813458469        -149.735328        0.164760678         129.182702
1.019e+10       0.885475101         141.423614         2.50811387        -105.553169       0.0813880077        -149.966369        0.164204097         128.905675
1.0195e+10       0.885247483         141.178124         2.50817635        -105.807508       0.0814301545        -150.197108        0.163650695         128.628216
1.02e+10       0.885020162         140.933031         2.50823783        -106.061548        0.081472288        -150.427548        0.163100464         128.350326
1.0205e+10       0.884793134         140.688334         2.50829833        -106.315289       0.0815144091        -150.657689        0.162553401         128.072008
1.021e+10         0.8845664         140.444029         2.50835788        -106.568732       0.0815565186        -150.887532        0.162009501         127.793262
1.0215e+10       0.884339957         140.200116          2.5084165        -106.821879       0.0815986171        -151.117079        0.161468757          127.51409
1.022e+10       0.884113804         139.956593         2.50847422         -107.07473       0.0816407054         -151.34633        0.160931165         127.234494
1.0225e+10        0.88388794         139.713456         2.50853106        -107.327287       0.0816827843        -151.575287         0.16039672         126.954476
1.023e+10       0.883662362         139.470706         2.50858704        -107.579551       0.0817248545        -151.803951        0.159865417         126.674037
1.0235e+10        0.88343707         139.228338         2.50864219        -107.831523       0.0817669168        -152.032323        0.159337249         126.393179
1.024e+10       0.883212062         138.986353         2.50869653        -108.083204       0.0818089719        -152.260404        0.158812213         126.111904
1.0245e+10       0.882987336         138.744747         2.50875008        -108.334595       0.0818510204        -152.488195        0.158290301         125.830215
1.025e+10       0.882762891         138.503518         2.50880287        -108.585698       0.0818930631        -152.715698         0.15777151         125.548113
1.0255e+10       0.882538725         138.262665         2.50885492        -108.836513       0.0819351007        -152.942913        0.157255832           125.2656
1.026e+10       0.882314837         138.022187         2.50890624        -109.087041       0.0819771339        -153.169841        0.156743264         124.982679
1.0265e+10       0.882091226          137.78208         2.50895687        -109.337284       0.0820191634        -153.396484        0.156233799         124.699352
1.027e+10       0.881867889         137.542343         2.50900681        -109.587243       0.0820611899        -153.622843        0.155727431          124.41562
1.0275e+10       0.881644825         137.302975         2.50905611        -109.836918        0.082103214        -153.848918        0.155224155         124.131487
1.028e+10       0.881422032         137.063973         2.50910476        -110.086312       0.0821452363        -154.074712        0.154723965         123.846956
1.0285e+10        0.88119951         136.825335         2.50915281        -110.335424       0.0821872577        -154.300224        0.154226856         123.562027
1.029e+10       0.880977256          136.58706         2.50920025        -110.584257       0.0822292786        -154.525457         0.15373282         123.276705
1.0295e+10       0.880755269         136.349146         2.50924713         -110.83281       0.0822712999         -154.75041        0.153241853         122.990991
1.03e+10       0.880533547         136.111591         2.50929345        -111.081086        0.082313322        -154.975086        0.152753949         122.704889
1.0305e+10       0.880312089         135.874393         2.50933924        -111.329085       0.0823553456        -155.199485        0.152269101         122.418401
1.031e+10       0.880090894          135.63755         2.50938451        -111.576809       0.0823973714        -155.423609        0.151787303          122.13153
1.0315e+10       0.879869958          135.40106         2.50942928        -111.824258          0.0824394        -155.647458         0.15130855         121.844279
1.032e+10       0.879649282         135.164922         2.50947358        -112.071433        0.082481432        -155.871033        0.150832834         121.556651
1.0325e+10       0.879428864         134.929134         2.50951743        -112.318336        0.082523468        -156.094336         0.15036015         121.268649
1.033e+10       0.879208701         134.693695         2.50956083        -112.564967       0.0825655085        -156.317367        0.149890492         120.980276
1.0335e+10       0.878988793         134.458601         2.50960381        -112.811328       0.0826075543        -156.540128        0.149423853         120.691535
1.034e+10       0.878769138         134.223852         2.50964639        -113.057419       0.0826496058        -156.762619        0.148960227          120.40243
1.0345e+10       0.878549733         133.989445         2.50968859        -113.303243       0.0826916638        -156.984843        0.148499606         120.112964
1.035e+10       0.878330579          133.75538         2.50973042        -113.548799       0.0827337286        -157.206799        0.148041986          119.82314
1.0355e+10       0.878111672         133.521654         2.50977189        -113.794088        0.082775801        -157.428488        0.147587358         119.532962
1.036e+10       0.877893012         133.288265         2.50981304        -114.039113       0.0828178814        -157.649913        0.147135717         119.242434
1.0365e+10       0.877674596         133.055212         2.50985387        -114.283873       0.0828599704        -157.871073        0.146687056         118.951558
1.037e+10       0.877456424         132.822493          2.5098944         -114.52837       0.0829020687         -158.09197        0.146241367         118.660339
1.0375e+10       0.877238493         132.590106         2.50993465        -114.772605       0.0829441766        -158.312605        0.145798645          118.36878
1.038e+10       0.877020803          132.35805         2.50997464        -115.016579       0.0829862948        -158.532979        0.145358881         118.076885
1.0385e+10       0.876803351         132.126322         2.51001437        -115.260292       0.0830284238        -158.753092         0.14492207         117.784658
1.039e+10       0.876586136         131.894922         2.51005387        -115.503747       0.0830705641        -158.972947        0.144488204         117.492103
1.0395e+10       0.876369156         131.663847         2.51009315        -115.746943       0.0831127163        -159.192543        0.144057276         117.199224
1.04e+10       0.876152409         131.433096         2.51013223        -115.989883       0.0831548809        -159.411883        0.143629279         116.906025
1.0405e+10       0.875935895         131.202667         2.51017113        -116.232566       0.0831970583        -159.630966        0.143204206          116.61251
1.041e+10       0.875719612         130.972559         2.51020985        -116.474994        0.083239249        -159.849794        0.142782049         116.318683
1.0415e+10       0.875503557         130.742769         2.51024841        -116.717167       0.0832814537        -160.068367        0.142362801         116.024549
1.042e+10       0.875287729         130.513296         2.51028683        -116.959088       0.0833236727        -160.286688        0.141946455         115.730112
1.0425e+10       0.875072127         130.284139         2.51032512        -117.200756       0.0833659066        -160.504756        0.141533003         115.435376
1.043e+10        0.87485675         130.055296          2.5103633        -117.442173       0.0834081558        -160.722573        0.141122438         115.140346
1.0435e+10       0.874641594         129.826765         2.51040138         -117.68334       0.0834504209         -160.94014        0.140714752         114.845026
1.044e+10        0.87442666         129.598544         2.51043938        -117.924258       0.0834927022        -161.157458        0.140309937         114.549421
1.0445e+10       0.874211945         129.370632          2.5104773        -118.164927       0.0835350003        -161.374527        0.139907985         114.253536
1.045e+10       0.873997447         129.143028         2.51051517        -118.405349       0.0835773156        -161.591349         0.13950889         113.957374
1.0455e+10       0.873783166         128.915729         2.51055299        -118.645524       0.0836196485        -161.807924        0.139112642         113.660942
1.046e+10       0.873569099         128.688735         2.51059077        -118.885454       0.0836619996        -162.024254        0.138719234         113.364244
1.0465e+10       0.873355245         128.462043         2.51062855         -119.12514       0.0837043693         -162.24034        0.138328658         113.067285
1.047e+10       0.873141602         128.235652         2.51066631        -119.364582       0.0837467579        -162.456182        0.137940906         112.770069
1.0475e+10       0.872928169         128.009561         2.51070408        -119.603781        0.083789166        -162.671781         0.13755597         112.472603
1.048e+10       0.872714944         127.783767         2.51074187        -119.842739        0.083831594        -162.887139        0.137173841          112.17489
1.0485e+10       0.872501926          127.55827          2.5107797        -120.081456       0.0838740423        -163.102256        0.136794512         111.876936
1.049e+10       0.872289112         127.333067         2.51081756        -120.319933       0.0839165113        -163.317133        0.136417973         111.578747
1.0495e+10       0.872076502         127.108158         2.51085549        -120.558172       0.0839590014        -163.531772        0.136044216         111.280327
1.05e+10       0.871864093          126.88354         2.51089348        -120.796172       0.0840015131        -163.746172        0.135673233         110.981682
1.0505e+10       0.871651885         126.659212         2.51093155        -121.033935       0.0840440468        -163.960335        0.135305016         110.682817
1.051e+10       0.871439875         126.435173         2.51096971        -121.271462       0.0840866028        -164.174262        0.134939555         110.383738
1.0515e+10       0.871228061         126.211422         2.51100797        -121.508754       0.0841291815        -164.387954        0.134576842          110.08445
1.052e+10       0.871016443         125.987955         2.51104635        -121.745812       0.0841717834        -164.601412        0.134216869         109.784959
1.0525e+10       0.870805019         125.764773         2.51108485        -121.982636       0.0842144088        -164.814636        0.133859625          109.48527
1.053e+10       0.870593787         125.541874         2.51112349        -122.219228       0.0842570581        -165.027628        0.133505103         109.185389
1.0535e+10       0.870382746         125.319255         2.51116228        -122.455589       0.0842997317        -165.240389        0.133153293         108.885322
1.054e+10       0.870171893         125.096916         2.51120121        -122.691718         0.08434243        -165.452918        0.132804187         108.585075
1.0545e+10       0.869961227         124.874856         2.51124032        -122.927618       0.0843851533        -165.665218        0.132457775         108.284653
1.055e+10       0.869750748         124.653072         2.51127961        -123.163289        0.084427902        -165.877289        0.132114047         107.984062
1.0555e+10       0.869540452         124.431563         2.51131908        -123.398732       0.0844706764        -166.089132        0.131772996         107.683309
1.056e+10       0.869330339         124.210329         2.51135874        -123.633948        0.084513477        -166.300748         0.13143461         107.382398
1.0565e+10       0.869120407         123.989366         2.51139862        -123.868937        0.084556304        -166.512137        0.131098882         107.081337
1.057e+10       0.868910655         123.768675         2.51143871        -124.103702       0.0845991578        -166.723302        0.130765801         106.780131
1.0575e+10        0.86870108         123.548253         2.51147903        -124.338241       0.0846420388        -166.934241        0.130435357         106.478786
1.058e+10       0.868491682         123.328099         2.51151958        -124.572558       0.0846849473        -167.144958        0.130107542         106.177309
1.0585e+10       0.868282458         123.108212         2.51156037        -124.806651       0.0847278835        -167.355451        0.129782346         105.875705
1.059e+10       0.868073407          122.88859         2.51160142        -125.040522        0.084770848        -167.565722        0.129459758         105.573982
1.0595e+10       0.867864527         122.669232         2.51164274        -125.274173       0.0848138409        -167.775773        0.129139769         105.272144
1.06e+10       0.867655818         122.450137         2.51168432        -125.507603       0.0848568626        -167.985603        0.128822369           104.9702
1.0605e+10       0.867447277         122.231303         2.51172618        -125.740814       0.0848999134        -168.195214        0.128507548         104.668154
1.061e+10       0.867238902         122.012728         2.51176833        -125.973806       0.0849429936        -168.404606        0.128195295         104.366013
1.0615e+10       0.867030693         121.794412         2.51181078        -126.206581       0.0849861036        -168.613781        0.127885602         104.063785
1.062e+10       0.866822647         121.576353         2.51185353        -126.439139       0.0850292436        -168.822739        0.127578457         103.761474
1.0625e+10       0.866614764         121.358549         2.51189659        -126.671481        0.085072414        -169.031481        0.127273851         103.459089
1.063e+10       0.866407041            121.141         2.51193997        -126.903608        0.085115615        -169.240008        0.126971772         103.156635
1.0635e+10       0.866199476         120.923703         2.51198369        -127.135521       0.0851588469        -169.448321        0.126672211         102.854118
1.064e+10       0.865992069         120.706659         2.51202774         -127.36722       0.0852021101         -169.65642        0.126375158         102.551547
1.0645e+10       0.865784818         120.489864         2.51207213        -127.598706       0.0852454047        -169.864306          0.1260806         102.248926
1.065e+10       0.865577721         120.273319         2.51211687        -127.829981       0.0852887312        -170.071981        0.125788529         101.946264
1.0655e+10       0.865370777         120.057021         2.51216197        -128.061045       0.0853320897        -170.279445        0.125498934         101.643566
1.066e+10       0.865163984         119.840969         2.51220744        -128.291898       0.0853754806        -170.486698        0.125211802          101.34084
1.0665e+10        0.86495734         119.625163         2.51225328        -128.522542        0.085418904        -170.693742        0.124927125         101.038092
1.067e+10       0.864750844           119.4096         2.51229949        -128.752978       0.0854623604        -170.900578        0.124644891         100.735329
1.0675e+10       0.864544495         119.194279          2.5123461        -128.983206       0.0855058499        -171.107206        0.124365088         100.432557
1.068e+10       0.864338291           118.9792         2.51239309        -129.213227       0.0855493728        -171.313627        0.124087707         100.129784
1.0685e+10       0.864132229         118.764361         2.51244049        -129.443041       0.0855929293        -171.519841        0.123812736          99.827017
1.069e+10        0.86392631          118.54976         2.51248829        -129.672651       0.0856365198        -171.725851        0.123540163          99.524262
1.0695e+10       0.863720531         118.335397          2.5125365        -129.902055       0.0856801444        -171.931655        0.123269979         99.2215263
1.07e+10       0.863514891         118.121269         2.51258514        -130.131257       0.0857238034        -172.137257        0.123002171         98.9188168
1.0705e+10       0.863309387         117.907377         2.51263419        -130.360255       0.0857674971        -172.342655        0.122736727         98.6161404
1.071e+10        0.86310402         117.693718         2.51268368         -130.58905       0.0858112257         -172.54785        0.122473638         98.3135041
1.0715e+10       0.862898786         117.480291          2.5127336        -130.817645       0.0858549893        -172.752845        0.122212891         98.0109148
1.072e+10       0.862693685         117.267096         2.51278397        -131.046038       0.0858987884        -172.957638        0.121954475         97.7083796
1.0725e+10       0.862488715          117.05413         2.51283478        -131.274232        0.085942623        -173.162232        0.121698378         97.4059053
1.073e+10       0.862283875         116.841393         2.51288604        -131.502227       0.0859864934        -173.366627        0.121444589          97.103499
1.0735e+10       0.862079162         116.628884         2.51293777        -131.730023       0.0860303998        -173.570823        0.121193097         96.8011678
1.074e+10       0.861874576           116.4166         2.51298995        -131.957622       0.0860743425        -173.774822        0.120943888         96.4989186
1.0745e+10       0.861670115         116.204542         2.51304261        -132.185024       0.0861183216        -173.978624        0.120696952         96.1967584
1.075e+10       0.861465777         115.992708         2.51309574         -132.41223       0.0861623375         -174.18223        0.120452277         95.8946944
1.0755e+10       0.861261561         115.781096         2.51314935        -132.639241       0.0862063901        -174.385641        0.120209851         95.5927334
1.076e+10       0.861057466         115.569706         2.51320344        -132.866057       0.0862504799        -174.588857        0.119969662         95.2908825
1.0765e+10       0.860853489         115.358536         2.51325802        -133.092679        0.086294607        -174.791879        0.119731698         94.9891488
1.077e+10       0.860649629         115.147585          2.5133131        -133.319108       0.0863387715        -174.994708        0.119495946         94.6875393
1.0775e+10       0.860445886         114.936853         2.51336867        -133.545345       0.0863829738        -175.197345        0.119262396         94.3860611
1.078e+10       0.860242257         114.726337         2.51342475         -133.77139       0.0864272139         -175.39979        0.119031034          94.084721
1.0785e+10        0.86003874         114.516036         2.51348133        -133.997244       0.0864714921        -175.602044        0.118801849         93.7835262
1.079e+10       0.859835335          114.30595         2.51353842        -134.222908       0.0865158085        -175.804108        0.118574829         93.4824837
1.0795e+10        0.85963204         114.096078         2.51359603        -134.448383       0.0865601634        -176.005983         0.11834996         93.1816005
1.08e+10       0.859428852         113.886418         2.51365416        -134.673669       0.0866045569        -176.207669        0.118127231         92.8808836
1.0805e+10       0.859225772         113.676969         2.51371281        -134.898768       0.0866489892        -176.409168         0.11790663         92.5803399
1.081e+10       0.859022797         113.467729         2.51377199        -135.123679       0.0866934605        -176.610479        0.117688143         92.2799764
1.0815e+10       0.858819926         113.258699          2.5138317        -135.348403       0.0867379709        -176.811603        0.117471759         91.9798002
1.082e+10       0.858617158         113.049877         2.51389195        -135.572942       0.0867825206        -177.012542        0.117257465         91.6798181
1.0825e+10        0.85841449         112.841261         2.51395273        -135.797296       0.0868271098        -177.213296        0.117045248         91.3800371
1.083e+10       0.858211921         112.632851         2.51401406        -136.021465       0.0868717387        -177.413865        0.116835096         91.0804641
1.0835e+10       0.858009451         112.424645         2.51407593         -136.24545       0.0869164073         -177.61425        0.116626997          90.781106
1.084e+10       0.857807076         112.216642         2.51413835        -136.469253        0.086961116        -177.814453        0.116420937         90.4819696
1.0845e+10       0.857604797         112.008842         2.51420133        -136.692873       0.0870058647        -178.014473        0.116216904         90.1830619
1.085e+10       0.857402612         111.801243         2.51426485        -136.916312       0.0870506537        -178.214312        0.116014885         89.8843897
1.0855e+10       0.857200518         111.593845         2.51432894         -137.13957       0.0870954832         -178.41397        0.115814868         89.5859597
1.086e+10       0.856998515         111.386645         2.51439359        -137.362648       0.0871403532        -178.613448        0.115616839         89.2877788
1.0865e+10       0.856796601         111.179643          2.5144588        -137.585546       0.0871852639        -178.812746        0.115420786         88.9898538
1.087e+10       0.856594774         110.972839         2.51452458        -137.808265       0.0872302155        -179.011865        0.115226695         88.6921913
1.0875e+10       0.856393034          110.76623         2.51459093        -138.030806       0.0872752081        -179.210806        0.115034555         88.3947982
1.088e+10       0.856191378         110.559816         2.51465786         -138.25317       0.0873202418         -179.40957        0.114844352          88.097681
1.0885e+10       0.855989806         110.353596         2.51472536        -138.475357       0.0873653168        -179.608157        0.114656073         87.8008464
1.089e+10       0.855788315         110.147569         2.51479343        -138.697368       0.0874104332        -179.806568        0.114469705         87.5043011
1.0895e+10       0.855586905         109.941734         2.51486209        -138.919204       0.0874555912         179.995196        0.114285235         87.2080516
1.09e+10       0.855385574          109.73609         2.51493133        -139.140864       0.0875007907         179.797136        0.114102651         86.9121045
1.0905e+10        0.85518432         109.530635         2.51500116        -139.362351       0.0875460321         179.599249        0.113921938         86.6164663
1.091e+10       0.854983142         109.325369         2.51507157        -139.583664       0.0875913154         179.401536        0.113743084         86.3211435
1.0915e+10       0.854782038         109.120291         2.51514258        -139.804804       0.0876366407         179.203996        0.113566077         86.0261425
1.092e+10       0.854581008         108.915399         2.51521417        -140.025773       0.0876820081         179.006627        0.113390902         85.7314698
1.0925e+10        0.85438005         108.710694         2.51528636        -140.246569       0.0877274178         178.809431        0.113217546         85.4371317
1.093e+10       0.854179162         108.506173         2.51535914        -140.467195       0.0877728698         178.612405        0.113045997         85.1431345
1.0935e+10       0.853978342         108.301836         2.51543252        -140.687651       0.0878183643         178.415549        0.112876242         84.8494846
1.094e+10        0.85377759         108.097682          2.5155065        -140.907937       0.0878639014         178.218863        0.112708266         84.5561882
1.0945e+10       0.853576904         107.893709         2.51558109        -141.128055       0.0879094812         178.022345        0.112542058         84.2632515
1.095e+10       0.853376283         107.689918         2.51565627        -141.348004       0.0879551038         177.825996        0.112377603         83.9706806
1.0955e+10       0.853175725         107.486306         2.51573206        -141.567785       0.0880007693         177.629815        0.112214888         83.6784818
1.096e+10       0.852975229         107.282874         2.51580845        -141.787399       0.0880464778         177.433801        0.112053901         83.3866609
1.0965e+10       0.852774793          107.07962         2.51588545        -142.006848       0.0880922293         177.237952        0.111894628         83.0952242
1.097e+10       0.852574415         106.876542         2.51596306         -142.22613       0.0881380241          177.04227        0.111737055         82.8041775
1.0975e+10       0.852374096         106.673641         2.51604128        -142.445247       0.0881838621         176.846753         0.11158117         82.5135268
1.098e+10       0.852173832         106.470915         2.51612011          -142.6642       0.0882297435           176.6514        0.111426959          82.223278
1.0985e+10       0.851973624         106.268363         2.51619956        -142.882989       0.0882756683         176.456211        0.111274409         81.9334369
1.099e+10       0.851773468         106.065985         2.51627961        -143.101615       0.0883216366         176.261185        0.111123507         81.6440092
1.0995e+10       0.851573365         105.863779         2.51636028        -143.320078       0.0883676486         176.066322        0.110974239         81.3550008
1.1e+10       0.851373312         105.661745         2.51644157        -143.538379       0.0884137043         175.871621        0.110826592         81.0664172
1.1005e+10       0.851189014         105.459333         2.51648374        -143.755353       0.0884615216         175.679297        0.110645813         80.7847246
1.101e+10       0.851004772          105.25709         2.51652659        -143.972164       0.0885093844         175.487136        0.110466649         80.5034474
1.1015e+10       0.850820584         105.055014          2.5165701        -144.188813       0.0885572929         175.295137        0.110289087         80.2225911
1.102e+10       0.850636449         104.853106         2.51661428        -144.405299       0.0886052471         175.103301        0.110113114         79.9421612
1.1025e+10       0.850452366         104.651363         2.51665914        -144.621624       0.0886532471         174.911626        0.109938717         79.6621629
1.103e+10       0.850268333         104.449786         2.51670467        -144.837789        0.088701293         174.720111        0.109765884         79.3826016
1.1035e+10       0.850084349         104.248373         2.51675087        -145.053793       0.0887493849         174.528757        0.109594601         79.1034826
1.104e+10       0.849900413         104.047124         2.51679775        -145.269637       0.0887975228         174.337563        0.109424856         78.8248109
1.1045e+10       0.849716524         103.846037          2.5168453        -145.485323       0.0888457069         174.146527        0.109256636         78.5465919
1.105e+10       0.849532679         103.645112         2.51689352         -145.70085       0.0888939372          173.95565        0.109089927         78.2688306
1.1055e+10       0.849348878         103.444348         2.51694243         -145.91622       0.0889422138          173.76493        0.108924718         77.9915321
1.106e+10        0.84916512         103.243743         2.51699201        -146.131432       0.0889905368         173.574368        0.108760995         77.7147014
1.1065e+10       0.848981402         103.043298         2.51704227        -146.346487       0.0890389063         173.383963        0.108598745         77.4383436
1.107e+10       0.848797725         102.843012          2.5170932        -146.561387       0.0890873222         173.193713        0.108437956         77.1624634
1.1075e+10       0.848614086         102.642882         2.51714482        -146.776131       0.0891357847         173.003619        0.108278614         76.8870659
1.108e+10       0.848430484          102.44291         2.51719711        -146.990721       0.0891842939         172.813679        0.108120708         76.6121559
1.1085e+10       0.848246918         102.243093         2.51725008        -147.205156       0.0892328498         172.623894        0.107964223          76.337738
1.109e+10       0.848063387         102.043431         2.51730374        -147.419437       0.0892814524         172.434263        0.107809149         76.0638171
1.1095e+10       0.847879889         101.843923         2.51735807        -147.633565       0.0893301019         172.244785        0.107655471         75.7903979
1.11e+10       0.847696424         101.644569         2.51741308        -147.847541       0.0893787982         172.055459        0.107503178         75.5174849
1.1105e+10       0.847512989         101.445367         2.51746877        -148.061365       0.0894275415         171.866285        0.107352256         75.2450827
1.111e+10       0.847329583         101.246317         2.51752514        -148.275037       0.0894763318         171.677263        0.107202693         74.9731959
1.1115e+10       0.847146206         101.047418         2.51758219        -148.488559       0.0895251692         171.488391        0.107054476         74.7018289
1.112e+10       0.846962856          100.84867         2.51763992         -148.70193       0.0895740536          171.29967        0.106907593         74.4309862
1.1125e+10       0.846779531          100.65007         2.51769833        -148.915152       0.0896229852         171.111098        0.106762032         74.1606721
1.113e+10       0.846596231         100.451619         2.51775742        -149.128224        0.089671964         170.922676        0.106617779         73.8908908
1.1135e+10       0.846412954         100.253316         2.51781719        -149.341148         0.08972099         170.734402        0.106474822         73.6216468
1.114e+10       0.846229699          100.05516         2.51787764        -149.553924       0.0897700633         170.546276        0.106333149         73.3529442
1.1145e+10       0.846046465         99.8571499         2.51793877        -149.766552       0.0898191839         170.358298        0.106192747         73.0847871
1.115e+10        0.84586325         99.6592855         2.51800057        -149.979033       0.0898683518         170.170467        0.106053604         72.8171796
1.1155e+10       0.845680053         99.4615658         2.51806305        -150.191368       0.0899175672         169.982782        0.105915707         72.5501258
1.116e+10       0.845496873         99.2639901         2.51812621        -150.403557         0.08996683         169.795243        0.105779045         72.2836297
1.1165e+10       0.845313708         99.0665576         2.51819004        -150.615601       0.0900161402         169.607849        0.105643604         72.0176951
1.117e+10       0.845130558         98.8692675         2.51825455          -150.8275       0.0900654979           169.4206        0.105509374          71.752326
1.1175e+10       0.844947421         98.6721191         2.51831974        -151.039255       0.0901149032         169.233495         0.10537634         71.4875262
1.118e+10       0.844764296         98.4751117          2.5183856        -151.250866        0.090164356         169.046534        0.105244492         71.2232995
1.1185e+10       0.844581182         98.2782446         2.51845214        -151.462333       0.0902138564         168.859717        0.105113817         70.9596495
1.119e+10       0.844398077         98.0815169         2.51851934        -151.673659       0.0902634044         168.673041        0.104984302         70.6965799
1.1195e+10        0.84421498         97.8849279         2.51858722        -151.884842       0.0903130001         168.486508        0.104855937         70.4340944
1.12e+10        0.84403189          97.688477         2.51865577        -152.095883       0.0903626433         168.300117        0.104728708         70.1721964
1.1205e+10       0.843848806         97.4921635         2.51872499        -152.306783       0.0904123343         168.113867        0.104602604         69.9108894
1.121e+10       0.843665726         97.2959865         2.51879488        -152.517543       0.0904620729         167.927757        0.104477613          69.650177
1.1215e+10        0.84348265         97.0999454         2.51886544        -152.728163       0.0905118593         167.741787        0.104353723         69.3900624
1.122e+10       0.843299576         96.9040396         2.51893667        -152.938643       0.0905616934         167.555957        0.104230921          69.130549
1.1225e+10       0.843116503         96.7082682         2.51900856        -153.148985       0.0906115752         167.370265        0.104109197           68.87164
1.123e+10       0.842933429         96.5126305         2.51908112        -153.359187       0.0906615047         167.184713        0.103988539         68.6133387
1.1235e+10       0.842750354          96.317126         2.51915434        -153.569252       0.0907114821         166.999298        0.103868934         68.3556483
1.124e+10       0.842567276         96.1217539         2.51922823        -153.779179       0.0907615072         166.814021        0.103750372         68.0985717
1.1245e+10       0.842384194         95.9265135         2.51930277         -153.98897         0.09081158          166.62888        0.103632839         67.8421121
1.125e+10       0.842201107         95.7314041         2.51937798        -154.198623       0.0908617007         166.443877        0.103516326         67.5862725
1.1255e+10       0.842018013         95.5364251         2.51945384        -154.408141       0.0909118691         166.259009         0.10340082         67.3310557
1.126e+10       0.841834912         95.3415757         2.51953036        -154.617524       0.0909620853         166.074276        0.103286309         67.0764647
1.1265e+10       0.841651803         95.1468554         2.51960754        -154.826771       0.0910123493         165.889679        0.103172783         66.8225023
1.127e+10       0.841468683         94.9522634         2.51968537        -155.035884       0.0910626612         165.705216         0.10306023         66.5691713
1.1275e+10       0.841285552         94.7577991         2.51976386        -155.244863       0.0911130208         165.520887        0.102948638         66.3164743
1.128e+10       0.841102409         94.5634618         2.51984299        -155.453708       0.0911634281         165.336692        0.102837997         66.0644141
1.1285e+10       0.840919252         94.3692509         2.51992278         -155.66242       0.0912138833          165.15263        0.102728294         65.8129932
1.129e+10       0.840736081         94.1751657         2.52000321           -155.871       0.0912643863           164.9687         0.10261952         65.5622142
1.1295e+10       0.840552894         93.9812056         2.52008429        -156.079448        0.091314937         164.784902        0.102511662         65.3120796
1.13e+10        0.84036969         93.7873699         2.52016602        -156.287764       0.0913655355         164.601236         0.10240471         65.0625919
1.1305e+10       0.840186467          93.593658         2.52024839        -156.495949       0.0914161817         164.417701        0.102298652         64.8137533
1.131e+10       0.840003226         93.4000693          2.5203314        -156.704003       0.0914668757         164.234297        0.102193478         64.5655664
1.1315e+10       0.839819964         93.2066031         2.52041505        -156.911927       0.0915176175         164.051023        0.102089177         64.3180333
1.132e+10        0.83963668         93.0132589         2.52049934        -157.119722       0.0915684069         163.867878        0.101985737         64.0711563
1.1325e+10       0.839453373         92.8200359         2.52058426        -157.327387       0.0916192441         163.684863        0.101883149         63.8249376
1.133e+10       0.839270042         92.6269335         2.52066982        -157.534924       0.0916701289         163.501976          0.1017814         63.5793793
1.1335e+10       0.839086686         92.4339513         2.52075601        -157.742332       0.0917210614         163.319218        0.101680482         63.3344835
1.134e+10       0.838903304         92.2410884         2.52084283        -157.949612       0.0917720416         163.136588        0.101580382         63.0902522
1.1345e+10       0.838719895         92.0483444         2.52093028        -158.156765       0.0918230694         162.954085        0.101481091         62.8466874
1.135e+10       0.838536456         91.8557187         2.52101835        -158.363791       0.0918741448         162.771709        0.101382597          62.603791
1.1355e+10       0.838352988         91.6632105         2.52110705        -158.570691       0.0919252678         162.589459        0.101284891         62.3615649
1.136e+10       0.838169489         91.4708195         2.52119637        -158.777465       0.0919764383         162.407335        0.101187962         62.1200109
1.1365e+10       0.837985958         91.2785448         2.52128631        -158.984113       0.0920276564         162.225337          0.1010918         61.8791308
1.137e+10       0.837802394          91.086386         2.52137687        -159.190636        0.092078922         162.043464        0.100996393         61.6389263
1.1375e+10       0.837618796         90.8943425         2.52146805        -159.397034       0.0921302351         161.861716        0.100901733         61.3993991
1.138e+10       0.837435162         90.7024137         2.52155983        -159.603308       0.0921815957         161.680092        0.100807809         61.1605508
1.1385e+10       0.837251492          90.510599         2.52165223        -159.809459       0.0922330036         161.498591        0.100714611          60.922383
1.139e+10       0.837067784         90.3188978         2.52174524        -160.015486        0.092284459         161.317214        0.100622129         60.6848972
1.1395e+10       0.836884037         90.1273096         2.52183885         -160.22139       0.0923359617          161.13596        0.100530352          60.448095
1.14e+10        0.83670025         89.9358338         2.52193307        -160.427172       0.0923875118         160.954828        0.100439272         60.2119777
1.1405e+10       0.836516422         89.7444699         2.52202789        -160.632832       0.0924391092         160.773818        0.100348877         59.9765468
1.141e+10       0.836332552         89.5532172         2.52212331         -160.83837       0.0924907538          160.59293        0.100259159         59.7418035
1.1415e+10       0.836148639         89.3620753         2.52221933        -161.043787       0.0925424457         160.412163        0.100170108         59.5077493
1.142e+10       0.835964681         89.1710435         2.52231594        -161.249083       0.0925941847         160.231517        0.100081713         59.2743852
1.1425e+10       0.835780678         88.9801214         2.52241314        -161.454259       0.0926459709         160.050991       0.0999939655         59.0417127
1.143e+10       0.835596628         88.7893084         2.52251094        -161.659315       0.0926978042         159.870585       0.0999068559         58.8097327
1.1435e+10        0.83541253         88.5986039         2.52260932        -161.864252       0.0927496845         159.690298       0.0998203746         58.5784465
1.144e+10       0.835228384         88.4080074         2.52270828         -162.06907       0.0928016119          159.51013       0.0997345121         58.3478551
1.1445e+10       0.835044187         88.2175184         2.52280783        -162.273769       0.0928535863         159.330081       0.0996492592         58.1179595
1.145e+10        0.83485994         88.0271363         2.52290796         -162.47835       0.0929056076          159.15015       0.0995646066         57.8887607
1.1455e+10       0.834675641         87.8368606         2.52300866        -162.682813       0.0929576758         158.970337        0.099480545         57.6602598
1.146e+10       0.834491288         87.6466909         2.52310994        -162.887159       0.0930097909         158.790641       0.0993970653         57.4324575
1.1465e+10       0.834306881         87.4566265         2.52321179        -163.091388       0.0930619527         158.611062       0.0993141584         57.2053548
1.147e+10       0.834122419         87.2666669         2.52331421          -163.2955       0.0931141613           158.4316       0.0992318153         56.9789524
1.1475e+10         0.8339379         87.0768117          2.5234172        -163.499496       0.0931664166         158.252254        0.099150027         56.7532512
1.148e+10       0.833753323         86.8870604         2.52352075        -163.703377       0.0932187186         158.073023       0.0990687847         56.5282519
1.1485e+10       0.833568688         86.6974123         2.52362486        -163.907142       0.0932710671         157.893908       0.0989880795         56.3039551
1.149e+10       0.833383994         86.5078671         2.52372953        -164.110793       0.0933234622         157.714907       0.0989079026         56.0803617
1.1495e+10       0.833199238         86.3184242         2.52383475        -164.314328       0.0933759038         157.536022       0.0988282454         55.8574721
1.15e+10       0.833014421         86.1290831         2.52394053         -164.51775       0.0934283918          157.35725       0.0987490992         55.6352869
1.1505e+10        0.83282954         85.9398433         2.52404685        -164.721058       0.0934809263         157.178592       0.0986704555         55.4138068
1.151e+10       0.832644596         85.7507044         2.52415373        -164.924253        0.093533507         157.000047       0.0985923057         55.1930323
1.1515e+10       0.832459586         85.5616658         2.52426114        -165.127335        0.093586134         156.821615       0.0985146415         54.9729637
1.152e+10       0.832274511         85.3727271          2.5243691        -165.330304       0.0936388073         156.643296       0.0984374545         54.7536016
1.1525e+10       0.832089368         85.1838878          2.5244776        -165.533161       0.0936915267         156.465089       0.0983607363         54.5349463
1.153e+10       0.831904157         84.9951474         2.52458663        -165.735906       0.0937442922         156.286994       0.0982844788         54.3169982
1.1535e+10       0.831718877         84.8065055          2.5246962         -165.93854       0.0937971037          156.10901       0.0982086738         54.0997576
1.154e+10       0.831533526         84.6179615         2.52480629        -166.141064       0.0938499612         155.931136       0.0981333131         53.8832249
1.1545e+10       0.831348104          84.429515         2.52491691        -166.343476       0.0939028646         155.753374       0.0980583888         53.6674003
1.155e+10       0.831162609         84.2411655         2.52502806        -166.545778       0.0939558139         155.575722       0.0979838928          53.452284
1.1555e+10       0.830977041         84.0529126         2.52513972        -166.747971        0.094008809         155.398179       0.0979098174         53.2378762
1.156e+10       0.830791398         83.8647559          2.5252519        -166.950053       0.0940618497         155.220747       0.0978361545         53.0241772
1.1565e+10        0.83060568         83.6766948          2.5253646        -167.152027       0.0941149362         155.043423       0.0977628965         52.8111869
1.157e+10       0.830419884         83.4887289         2.52547781        -167.353892       0.0941680682         154.866208       0.0976900357         52.5989055
1.1575e+10       0.830234012         83.3008577         2.52559153        -167.555649       0.0942212457         154.689101       0.0976175644         52.3873332
1.158e+10        0.83004806         83.1130809         2.52570575        -167.757298       0.0942744687         154.512102        0.097545475         52.1764698
1.1585e+10       0.829862029         82.9253979         2.52582047        -167.958839       0.0943277371         154.335211       0.0974737601         51.9663155
1.159e+10       0.829675917         82.7378084         2.52593569        -168.160273       0.0943810508         154.158427       0.0974024122         51.7568702
1.1595e+10       0.829489723         82.5503119         2.52605141          -168.3616       0.0944344098          153.98175       0.0973314239         51.5481338
1.16e+10       0.829303446          82.362908         2.52616762        -168.562821       0.0944878139         153.805179       0.0972607879         51.3401063
1.1605e+10       0.829117085         82.1755961         2.52628432        -168.763935       0.0945412631         153.628715        0.097190497         51.1327876
1.161e+10       0.828930639          81.988376         2.52640151        -168.964944       0.0945947574         153.452356        0.097120544         50.9261775
1.1615e+10       0.828744107         81.8012472         2.52651918        -169.165847       0.0946482966         153.276103       0.0970509217         50.7202758
1.162e+10       0.828557489         81.6142092         2.52663733        -169.366645       0.0947018807         153.099955       0.0969816232         50.5150825
1.1625e+10       0.828370782         81.4272617         2.52675595        -169.567338       0.0947555096         152.923912       0.0969126414         50.3105971
1.163e+10       0.828183986         81.2404042         2.52687505        -169.767927       0.0948091832         152.747973       0.0968439695         50.1068196
1.1635e+10       0.827997101         81.0536363         2.52699462        -169.968412       0.0948629015         152.572138       0.0967756005         49.9037497
1.164e+10       0.827810124         80.8669576         2.52711466        -170.168793       0.0949166644         152.396407       0.0967075277         49.7013869
1.1645e+10       0.827623055         80.6803677         2.52723516        -170.369071       0.0949704718         152.220779       0.0966397444         49.4997311
1.165e+10       0.827435893         80.4938662         2.52735612        -170.569246       0.0950243236         152.045254       0.0965722439         49.2987818
1.1655e+10       0.827248637         80.3074527         2.52747753        -170.769319       0.0950782197         151.869831       0.0965050195         49.0985388
1.166e+10       0.827061286         80.1211268          2.5275994        -170.969289       0.0951321601         151.694511       0.0964380649         48.8990016
1.1665e+10       0.826873839         79.9348881         2.52772172        -171.169157       0.0951861447         151.519293       0.0963713734         48.7001698
1.167e+10       0.826686294         79.7487363         2.52784449        -171.368923       0.0952401734         151.344177       0.0963049388         48.5020429
1.1675e+10       0.826498652         79.5626708          2.5279677        -171.568589       0.0952942462         151.169161       0.0962387546         48.3046205
1.168e+10       0.826310911         79.3766914         2.52809136        -171.768153       0.0953483628         150.994247       0.0961728146         48.1079022
1.1685e+10       0.826123069         79.1907976         2.52821544        -171.967617       0.0954025233         150.819433       0.0961071125         47.9118874
1.169e+10       0.825935126         79.0049891         2.52833997         -172.16698       0.0954567276          150.64472       0.0960416423         47.7165756
1.1695e+10       0.825747082         78.8192655         2.52846492        -172.366243       0.0955109756         150.470107       0.0959763978         47.5219662
1.17e+10       0.825558934         78.6336264          2.5285903        -172.565407       0.0955652672         150.295593        0.095911373         47.3280587
1.1705e+10       0.825370682         78.4480715          2.5287161        -172.764472       0.0956196023         150.121178        0.095846562         47.1348525
1.171e+10       0.825182325         78.2626003         2.52884232        -172.963437       0.0956739809         149.946863       0.0957819587          46.942347
1.1715e+10       0.824993862         78.0772126         2.52896896        -173.162304       0.0957284027         149.772646       0.0957175575         46.7505416
1.172e+10       0.824805293         77.8919078         2.52909601        -173.361073       0.0957828679         149.598527       0.0956533526         46.5594356
1.1725e+10       0.824616615         77.7066858         2.52922347        -173.559743       0.0958373762         149.424507       0.0955893381         46.3690283
1.173e+10       0.824427828         77.5215461         2.52935134        -173.758316       0.0958919276         149.250584       0.0955255085         46.1793192
1.1735e+10       0.824238931         77.3364884         2.52947961        -173.956792        0.095946522         149.076758       0.0954618581         45.9903075
1.174e+10       0.824049923         77.1515123         2.52960827        -174.155171       0.0960011593         148.903029       0.0953983815         45.8019925
1.1745e+10       0.823860804         76.9666174         2.52973734        -174.353452       0.0960558394         148.729398       0.0953350731         45.6143734
1.175e+10       0.823671572         76.7818035         2.52986679        -174.551638       0.0961105623         148.555862       0.0952719276         45.4274496
1.1755e+10       0.823482225         76.5970701         2.52999664        -174.749727       0.0961653278         148.382423       0.0952089396         45.2412202
1.176e+10       0.823292764          76.412417         2.53012687        -174.947721       0.0962201358         148.209079       0.0951461038         45.0556845
1.1765e+10       0.823103187         76.2278438         2.53025748        -175.145619       0.0962749863         148.035831        0.095083415         44.8708417
1.177e+10       0.822913494         76.0433501         2.53038847        -175.343422       0.0963298791         147.862678       0.0950208679         44.6866911
1.1775e+10       0.822723683         75.8589356         2.53051983         -175.54113       0.0963848143          147.68962       0.0949584576         44.5032316
1.178e+10       0.822533753            75.6746         2.53065157        -175.738743       0.0964397915         147.516657       0.0948961789         44.3204627
1.1785e+10       0.822343704          75.490343         2.53078367        -175.936262       0.0964948109         147.343788       0.0948340269         44.1383833
1.179e+10       0.822153534         75.3061642         2.53091614        -176.133688       0.0965498723         147.171012       0.0947719965         43.9569926
1.1795e+10       0.821963242         75.1220634         2.53104896        -176.331019       0.0966049755         146.998331        0.094710083         43.7762898
1.18e+10       0.821772828         74.9380401         2.53118214        -176.528257       0.0966601205         146.825743       0.0946482815          43.596274
1.1805e+10       0.821582291          74.754094         2.53131568        -176.725403       0.0967153073         146.653247       0.0945865873         43.4169443
1.181e+10       0.821391629         74.5702249         2.53144957        -176.922455       0.0967705356         146.480845       0.0945249956         43.2382998
1.1815e+10       0.821200842         74.3864325          2.5315838        -177.119415       0.0968258055         146.308535       0.0944635017         43.0603395
1.182e+10       0.821009928         74.2027164         2.53171837        -177.316283       0.0968811167         146.136317       0.0944021012         42.8830625
1.1825e+10       0.820818888         74.0190762         2.53185329        -177.513059       0.0969364693         145.964191       0.0943407895         42.7064679
1.183e+10       0.820627719         73.8355118         2.53198854        -177.709743       0.0969918631         145.792157        0.094279562         42.5305547
1.1835e+10       0.820436421         73.6520228         2.53212412        -177.906336        0.097047298         145.620214       0.0942184144         42.3553219
1.184e+10       0.820244993         73.4686089         2.53226003        -178.102838       0.0971027739         145.448362       0.0941573424         42.1807687
1.1845e+10       0.820053434         73.2852698         2.53239626        -178.299249       0.0971582907         145.276601       0.0940963415         42.0068939
1.185e+10       0.819861744         73.1020052         2.53253281         -178.49557       0.0972138484          145.10493       0.0940354075         41.8336967
1.1855e+10        0.81966992         72.9188148         2.53266968          -178.6918       0.0972694468          144.93335       0.0939745362         41.6611759
1.186e+10       0.819477963         72.7356984         2.53280687        -178.887941       0.0973250858         144.761859       0.0939137236         41.4893307
1.1865e+10       0.819285871         72.5526555         2.53294437        -179.083992       0.0973807653         144.590458       0.0938529654         41.3181599
1.187e+10       0.819093643          72.369686         2.53308217        -179.279954       0.0974364853         144.419146       0.0937922577         41.1476625
1.1875e+10       0.818901279         72.1867896         2.53322027        -179.475827       0.0974922455         144.247923       0.0937315964         40.9778376
1.188e+10       0.818708777         72.0039659         2.53335868        -179.671611        0.097548046         144.076789       0.0936709777          40.808684
1.1885e+10       0.818516137         71.8212147         2.53349737        -179.867306       0.0976038866         143.905744       0.0936103976         40.6402007
1.189e+10       0.818323357         71.6385358         2.53363637         179.937087       0.0976597672         143.734787       0.0935498523         40.4723867
1.1895e+10       0.818130437         71.4559287         2.53377565         179.741568       0.0977156877         143.563918       0.0934893381         40.3052409
1.19e+10       0.817937376         71.2733934         2.53391521         179.546136        0.097771648         143.393136       0.0934288513         40.1387622
1.1905e+10       0.817744173         71.0909294         2.53405506         179.350792        0.097827648         143.222442        0.093368388         39.9729495
1.191e+10       0.817550827         70.9085366         2.53419518         179.155535       0.0978836876         143.051835       0.0933079449         39.8078017
1.1915e+10       0.817357337         70.7262146         2.53433558         178.960365       0.0979397667         142.881315       0.0932475182         39.6433178
1.192e+10       0.817163702         70.5439633         2.53447624         178.765281       0.0979958852         142.710881       0.0931871044         39.4794967
1.1925e+10       0.816969922         70.3617822         2.53461718         178.570284        0.098052043         142.540534       0.0931267002         39.3163373
1.193e+10       0.816775994         70.1796713         2.53475837         178.375373         0.09810824         142.370273        0.093066302         39.1538384
1.1935e+10       0.816581919         69.9976302         2.53489983         178.180548        0.098164476         142.200098       0.0930059065         38.9919989
1.194e+10       0.816387696         69.8156586         2.53504154         177.985808       0.0982207511         142.030008       0.0929455105         38.8308177
1.1945e+10       0.816193323         69.6337564          2.5351835         177.791154       0.0982770649         141.860004       0.0928851105         38.6702938
1.195e+10         0.8159988         69.4519232         2.53532572         177.596585       0.0983334176         141.690085       0.0928247035         38.5104259
1.1955e+10       0.815804126         69.2701588         2.53546817         177.402101       0.0983898089         141.520251       0.0927642862          38.351213
1.196e+10         0.8156093          69.088463         2.53561087         177.207701       0.0984462387         141.350501       0.0927038555         38.1926539
1.1965e+10        0.81541432         68.9068355          2.5357538         177.013385        0.098502707         141.180835       0.0926434084         38.0347475
1.197e+10       0.815219187         68.7252761         2.53589697         176.819154       0.0985592136         141.011254       0.0925829418         37.8774926
1.1975e+10       0.815023899         68.5437846         2.53604037         176.625006       0.0986157585         140.841756       0.0925224528         37.7208881
1.198e+10       0.814828455         68.3623607           2.536184         176.430942       0.0986723415         140.672342       0.0924619384         37.5649329
1.1985e+10       0.814632855         68.1810041         2.53632785         176.236961       0.0987289624         140.503011       0.0924013957         37.4096257
1.199e+10       0.814437097         67.9997147         2.53647191         176.043063       0.0987856213         140.333763        0.092340822         37.2549655
1.1995e+10       0.814241181         67.8184922          2.5366162         175.849248        0.098842318         140.164598       0.0922802143         37.1009511
1.2e+10       0.814045105         67.6373364         2.53676069         175.655516       0.0988990524         139.995516         0.09221957         36.9475813
1.2005e+10       0.813864916          67.455854          2.5368461         175.462162         0.09894741         139.827062       0.0920933041         36.7795271
1.201e+10       0.813684578          67.274437         2.53693175         175.268891       0.0989958016         139.658691       0.0919670309         36.6121642
1.2015e+10       0.813504091         67.0930852         2.53701763         175.075705        0.099044227         139.490405       0.0918407473         36.4454926
1.202e+10       0.813323454         66.9117984         2.53710373         174.882601       0.0990926861         139.322201         0.09171445         36.2795125
1.2025e+10       0.813142666         66.7305764         2.53719006          174.68958       0.0991411788          139.15408        0.091588136         36.1142238
1.203e+10       0.812961726         66.5494189         2.53727662         174.496643        0.099189705         138.986043       0.0914618024         35.9496268
1.2035e+10       0.812780633         66.3683257         2.53736338         174.303787       0.0992382645         138.818087       0.0913354461         35.7857214
1.204e+10       0.812599387         66.1872966         2.53745037         174.111014       0.0992868574         138.650214       0.0912090643         35.6225078
1.2045e+10       0.812417986         66.0063315         2.53753756         173.918323       0.0993354834         138.482423        0.091082654          35.459986
1.205e+10        0.81223643         65.8254301         2.53762497         173.725714       0.0993841424         138.314714       0.0909562125         35.2981563
1.2055e+10       0.812054717         65.6445922         2.53771257         173.533186       0.0994328345         138.147086        0.090829737         35.1370185
1.206e+10       0.811872848         65.4638177         2.53780038          173.34074       0.0994815593          137.97954       0.0907032248         34.9765729
1.2065e+10        0.81169082         65.2831062         2.53788838         173.148375       0.0995303169         137.812075       0.0905766733         34.8168196
1.207e+10       0.811508634         65.1024577         2.53797657          172.95609       0.0995791071          137.64469       0.0904500797         34.6577586
1.2075e+10       0.811326288         64.9218719         2.53806496         172.763886       0.0996279298         137.477386       0.0903234417           34.49939
1.208e+10       0.811143781         64.7413486         2.53815353         172.571762       0.0996767849         137.310162       0.0901967566         34.3417139
1.2085e+10       0.810961113         64.5608877         2.53824228         172.379719       0.0997256724         137.143019        0.090070022         34.1847305
1.209e+10       0.810778283         64.3804889         2.53833122         172.187755        0.099774592         136.975955       0.0899432355         34.0284398
1.2095e+10       0.810595289         64.2001521         2.53842033         171.995871       0.0998235436         136.808971       0.0898163948          33.872842
1.21e+10       0.810412132         64.0198771         2.53850961         171.804066       0.0998725272         136.642066       0.0896894974         33.7179371
1.2105e+10       0.810228809         63.8396637         2.53859905         171.612341       0.0999215427         136.475241       0.0895625412         33.5637253
1.211e+10       0.810045321         63.6595117         2.53868867         171.420694       0.0999705899         136.308494        0.089435524         33.4102068
1.2115e+10       0.809861667         63.4794209         2.53877844         171.229126        0.100019669         136.141826       0.0893084435         33.2573815
1.212e+10       0.809677845         63.2993912         2.53886838         171.037637        0.100068779         135.975237       0.0891812977         33.1052497
1.2125e+10       0.809493855         63.1194224         2.53895846         170.846226        0.100117921         135.808726       0.0890540845         32.9538115
1.213e+10       0.809309696         62.9395143          2.5390487         170.654893        0.100167094         135.642293       0.0889268019          32.803067
1.2135e+10       0.809125367         62.7596668         2.53913909         170.463638        0.100216298         135.475938       0.0887994478         32.6530164
1.214e+10       0.808940867         62.5798796         2.53922962          170.27246        0.100265533          135.30966       0.0886720204         32.5036598
1.2145e+10       0.808756196         62.4001527         2.53932029          170.08136          0.1003148          135.14346       0.0885445178         32.3549973
1.215e+10       0.808571352         62.2204858         2.53941109         169.890337        0.100364097         134.977337       0.0884169381         32.2070292
1.2155e+10       0.808386335         62.0408787         2.53950203         169.699391        0.100413425         134.811291       0.0882892795         32.0597555
1.216e+10       0.808201144         61.8613314          2.5395931         169.508521        0.100462783         134.645321       0.0881615404         31.9131765
1.2165e+10       0.808015778         61.6818437          2.5396843         169.317729        0.100512172         134.479429        0.088033719         31.7672923
1.217e+10       0.807830236         61.5024153         2.53977562         169.127012        0.100561591         134.313612       0.0879058136         31.6221031
1.2175e+10       0.807644517         61.3230462         2.53986706         168.936371        0.100611041         134.147871       0.0877778227         31.4776091
1.218e+10       0.807458622         61.1437362         2.53995861         168.745807        0.100660521         133.982207       0.0876497447         31.3338104
1.2185e+10       0.807272548         60.9644851         2.54005028         168.555318         0.10071003         133.816618       0.0875215781         31.1907074
1.219e+10       0.807086295         60.7852928         2.54014205         168.364904         0.10075957         133.651104       0.0873933213            31.0483
1.2195e+10       0.806899862         60.6061591         2.54023393         168.174566         0.10080914         133.485666        0.087264973         30.9065887
1.22e+10       0.806713248          60.427084         2.54032592         167.984303        0.100858739         133.320303       0.0871365319         30.7655736
1.2205e+10       0.806526453         60.2480671           2.540418         167.794114        0.100908368         133.155014       0.0870079965         30.6252549
1.221e+10       0.806339476         60.0691085         2.54051017            167.604        0.100958026           132.9898       0.0868793655         30.4856328
1.2215e+10       0.806152315         59.8902079         2.54060244         167.413961        0.101007714         132.824661       0.0867506378         30.3467077
1.222e+10       0.805964971         59.7113652          2.5406948         167.223996        0.101057431         132.659596       0.0866218121         30.2084797
1.2225e+10       0.805777442         59.5325804         2.54078724         167.034104        0.101107177         132.494604       0.0864928872         30.0709491
1.223e+10       0.805589727         59.3538531         2.54087976         166.844287        0.101156952         132.329687       0.0863638621         29.9341161
1.2235e+10       0.805401825         59.1751834         2.54097236         166.654543        0.101206756         132.164843       0.0862347356         29.7979811
1.224e+10       0.805213737          58.996571         2.54106503         166.464873        0.101256589         132.000073       0.0861055067         29.6625443
1.2245e+10       0.805025461         58.8180158         2.54115778         166.275276        0.101306451         131.835376       0.0859761744          29.527806
1.225e+10       0.804836995         58.6395178         2.54125059         166.085751        0.101356341         131.670751       0.0858467378         29.3937665
1.2255e+10       0.804648341         58.4610768         2.54134347           165.8963        0.101406259           131.5062       0.0857171959         29.2604261
1.226e+10       0.804459495         58.2826926          2.5414364         165.706921        0.101456206         131.341721        0.085587548         29.1277851
1.2265e+10       0.804270459         58.1043651          2.5415294         165.517615        0.101506182         131.177315       0.0854577931         28.9958439
1.227e+10        0.80408123         57.9260942         2.54162244         165.328381        0.101556185         131.012981       0.0853279305         28.8646027
1.2275e+10       0.803891809         57.7478798         2.54171554         165.139218        0.101606216         130.848718       0.0851979595         28.7340619
1.228e+10       0.803702194         57.5697218         2.54180869         164.950128        0.101656275         130.684528       0.0850678793         28.6042218
1.2285e+10       0.803512385           57.39162         2.54190187          164.76111        0.101706362          130.52041       0.0849376892         28.4750829
1.229e+10        0.80332238         57.2135743          2.5419951         164.572162        0.101756477         130.356362       0.0848073888         28.3466455
1.2295e+10        0.80313218         57.0355847         2.54208837         164.383287        0.101806619         130.192387       0.0846769773         28.2189099
1.23e+10       0.802941782         56.8576509         2.54218167         164.194482        0.101856789         130.028482       0.0845464543         28.0918766
1.2305e+10       0.802751187         56.6797729         2.54227499         164.005748        0.101906985         129.864648       0.0844158192         27.9655459
1.231e+10       0.802560394         56.5019506         2.54236835         163.817085        0.101957209         129.700885       0.0842850716         27.8399183
1.2315e+10       0.802369402         56.3241839         2.54246173         163.628492        0.102007461         129.537192        0.084154211         27.7149941
1.232e+10       0.802178209         56.1464726         2.54255513          163.43997        0.102057739          129.37357       0.0840232372         27.5907739
1.2325e+10       0.801986816         55.9688166         2.54264854         163.251518        0.102108044         129.210018       0.0838921497          27.467258
1.233e+10       0.801795222         55.7912159         2.54274197         163.063135        0.102158376         129.046535       0.0837609482         27.3444469
1.2335e+10       0.801603425         55.6136704         2.54283541         162.874823        0.102208734         128.883123       0.0836296325         27.2223411
1.234e+10       0.801411425         55.4361798         2.54292886          162.68658        0.102259119          128.71978       0.0834982024         27.1009409
1.2345e+10       0.801219221         55.2587443          2.5430223         162.498407         0.10230953         128.556507       0.0833666576          26.980247
1.235e+10       0.801026813         55.0813635         2.54311575         162.310303        0.102359968         128.393303        0.083234998         26.8602598
1.2355e+10       0.800834199         54.9040375          2.5432092         162.122268        0.102410432         128.230168       0.0831032236         26.7409799
1.236e+10       0.800641379         54.7267661         2.54330264         161.934302        0.102460922         128.067102       0.0829713341         26.6224076
1.2365e+10       0.800448353         54.5495493         2.54339607         161.746405        0.102511437         127.904105       0.0828393297         26.5045436
1.237e+10       0.800255118          54.372387         2.54348948         161.558576        0.102561979         127.741176       0.0827072103         26.3873883
1.2375e+10       0.800061675          54.195279         2.54358288         161.370816        0.102612546         127.578316       0.0825749759         26.2709425
1.238e+10       0.799868023         54.0182254         2.54367626         161.183124        0.102663139         127.415524       0.0824426266         26.1552065
1.2385e+10        0.79967416         53.8412259         2.54376962           160.9955        0.102713758           127.2528       0.0823101626          26.040181
1.239e+10       0.799480087         53.6642805         2.54386295         160.807944        0.102764402         127.090144       0.0821775839         25.9258665
1.2395e+10       0.799285802         53.4873891         2.54395626         160.620456        0.102815071         126.927556       0.0820448908         25.8122637
1.24e+10       0.799091305         53.3105517         2.54404953         160.433035        0.102865765         126.765035       0.0819120835         25.6993732
1.2405e+10       0.798896595         53.1337681         2.54414276         160.245682        0.102916485         126.602582       0.0817791622         25.5871956
1.241e+10       0.798701671         52.9570383         2.54423595         160.058395        0.102967229         126.440195       0.0816461273         25.4757315
1.2415e+10       0.798506533         52.7803622         2.54432911         159.871176        0.103017998         126.277876       0.0815129791         25.3649816
1.242e+10       0.798311179         52.6037397         2.54442222         159.684024        0.103068792         126.115624       0.0813797179         25.2549465
1.2425e+10       0.798115609         52.4271707         2.54451527         159.496938        0.103119611         125.953438       0.0812463441         25.1456269
1.243e+10       0.797919822         52.2506552         2.54460828         159.309919        0.103170454         125.791319       0.0811128582         25.0370234
1.2435e+10       0.797723817         52.0741931         2.54470124         159.122967        0.103221321         125.629267       0.0809792607         24.9291369
1.244e+10       0.797527594         51.8977843         2.54479413          158.93608        0.103272213          125.46728       0.0808455521         24.8219679
1.2445e+10       0.797331152         51.7214288         2.54488696          158.74926        0.103323128          125.30536       0.0807117328         24.7155173
1.245e+10        0.79713449         51.5451264         2.54497973         158.562506        0.103374068         125.143506       0.0805778036         24.6097856
1.2455e+10       0.796937607         51.3688772         2.54507244         158.375817        0.103425032         124.981717       0.0804437649         24.5047738
1.246e+10       0.796740503          51.192681         2.54516507         158.189194         0.10347602         124.819994       0.0803096175         24.4004825
1.2465e+10       0.796543177         51.0165377         2.54525763         158.002637        0.103527031         124.658337        0.080175362         24.2969125
1.247e+10       0.796345628         50.8404474         2.54535011         157.816144        0.103578066         124.496744       0.0800409991         24.1940647
1.2475e+10       0.796147855         50.6644099         2.54544251         157.629717        0.103629125         124.335217       0.0799065296         24.0919397
1.248e+10       0.795949858         50.4884252         2.54553483         157.443355        0.103680206         124.173755       0.0797719543         23.9905384
1.2485e+10       0.795751636         50.3124933         2.54562707         157.257058        0.103731312         124.012358        0.079637274         23.8898617
1.249e+10       0.795553187          50.136614         2.54571921         157.070825         0.10378244         123.851025       0.0795024895         23.7899104
1.2495e+10       0.795354513         49.9607873         2.54581127         156.884657        0.103833591         123.689757       0.0793676017         23.6906853
1.25e+10        0.79515561         49.7850131         2.54590322         156.698553        0.103884766         123.528553       0.0792326115         23.5921873
1.2505e+10        0.79495648         49.6092915         2.54599508         156.512514        0.103935963         123.367414       0.0790975199         23.4944172
1.251e+10       0.794757121         49.4336223         2.54608684         156.326538        0.103987183         123.206338       0.0789623279          23.397376
1.2515e+10       0.794557532         49.2580055          2.5461785         156.140627        0.104038425         123.045327       0.0788270364         23.3010646
1.252e+10       0.794357713          49.082441         2.54627005         155.954779         0.10408969         122.884379       0.0786916465         23.2054839
1.2525e+10       0.794157663         48.9069288         2.54636149         155.768995        0.104140978         122.723495       0.0785561593         23.1106347
1.253e+10       0.793957381         48.7314689         2.54645281         155.583275        0.104192288         122.562675        0.078420576         23.0165182
1.2535e+10       0.793756867         48.5560611         2.54654402         155.397617         0.10424362         122.401917       0.0782848975         22.9231351
1.254e+10       0.793556119         48.3807055         2.54663512         155.212023        0.104294974         122.241223       0.0781491252         22.8304866
1.2545e+10       0.793355138          48.205402         2.54672609         155.026492         0.10434635         122.080592       0.0780132602         22.7385735
1.255e+10       0.793153922         48.0301506         2.54681693         154.841024        0.104397748         121.920024       0.0778773038          22.647397
1.2555e+10        0.79295247         47.8549511         2.54690765         154.655619        0.104449167         121.759519       0.0777412572         22.5569579
1.256e+10       0.792750782         47.6798037         2.54699824         154.470276        0.104500609         121.599076       0.0776051217         22.4672573
1.2565e+10       0.792548857         47.5047081         2.54708869         154.284996        0.104552072         121.438696       0.0774688987         22.3782963
1.257e+10       0.792346695         47.3296645         2.54717901         154.099778        0.104603556         121.278378       0.0773325895         22.2900759
1.2575e+10       0.792144294         47.1546727         2.54726919         153.914623        0.104655062         121.118123       0.0771961955         22.2025973
1.258e+10       0.791941654         46.9797327         2.54735923         153.729529        0.104706589         120.957929       0.0770597181         22.1158613
1.2585e+10       0.791738774         46.8048445         2.54744913         153.544497        0.104758137         120.797797       0.0769231589         22.0298693
1.259e+10       0.791535654         46.6300081         2.54753887         153.359528        0.104809707         120.637728       0.0767865192         21.9446222
1.2595e+10       0.791332293         46.4552233         2.54762847         153.174619        0.104861297         120.477719       0.0766498006         21.8601212
1.26e+10        0.79112869         46.2804903         2.54771791         152.989773        0.104912908         120.317773       0.0765130047         21.7763675
1.2605e+10       0.790924844         46.1058089          2.5478072         152.804988         0.10496454         120.157888       0.0763761329         21.6933621
1.261e+10       0.790720754         45.9311791         2.54789633         152.620264        0.105016192         119.998064        0.076239187         21.6111063
1.2615e+10       0.790516421         45.7566009          2.5479853         152.435601        0.105067865         119.838301       0.0761021685         21.5296013
1.262e+10       0.790311842         45.5820743          2.5480741         152.250999        0.105119558         119.678599       0.0759650792         21.4488482
1.2625e+10       0.790107019         45.4075992         2.54816274         152.066458        0.105171272         119.518958       0.0758279206         21.3688482
1.263e+10       0.789901948         45.2331756         2.54825121         151.881978        0.105223006         119.359378       0.0756906946         21.2896025
1.2635e+10       0.789696631         45.0588035          2.5483395         151.697558         0.10527476         119.199858       0.0755534029         21.2111125
1.264e+10       0.789491067         44.8844829         2.54842762         151.513199        0.105326534         119.040399       0.0754160472         21.1333792
1.2645e+10       0.789285254         44.7102137         2.54851557           151.3289        0.105378328            118.881       0.0752786295         21.0564041
1.265e+10       0.789079191         44.5359959         2.54860333         151.144661        0.105430142         118.721661       0.0751411514         20.9801884
1.2655e+10       0.788872879         44.3618295         2.54869091         150.960483        0.105481975         118.562383        0.075003615         20.9047333
1.266e+10       0.788666317         44.1877145          2.5487783         150.776364        0.105533828         118.403164        0.074866022         20.8300401
1.2665e+10       0.788459503         44.0136509         2.54886551         150.592306        0.105585701         118.244006       0.0747283745         20.7561103
1.267e+10       0.788252438         43.8396386         2.54895253         150.408307        0.105637593         118.084907       0.0745906743          20.682945
1.2675e+10       0.788045119         43.6656777         2.54903935         150.224367        0.105689504         117.925867       0.0744529235         20.6105457
1.268e+10       0.787837548          43.491768         2.54912598         150.040487        0.105741435         117.766887        0.074315124         20.5389137
1.2685e+10       0.787629722         43.3179097         2.54921241         149.856667        0.105793385         117.607967        0.074177278         20.4680504
1.269e+10       0.787421642         43.1441026         2.54929863         149.672905        0.105845354         117.449105       0.0740393874         20.3979571
1.2695e+10       0.787213306         42.9703469         2.54938466         149.489203        0.105897341         117.290303       0.0739014544         20.3286353
1.27e+10       0.787004714         42.7966424         2.54947048          149.30556        0.105949348          117.13156       0.0737634812         20.2600864
1.2705e+10       0.786795865         42.6229891         2.54955608         149.121975        0.106001373         116.972875       0.0736254697         20.1923117
1.271e+10       0.786586759         42.4493871         2.54964148         148.938449        0.106053417         116.814249       0.0734874223         20.1253127
1.2715e+10       0.786377394         42.2758364         2.54972667         148.754982         0.10610548         116.655682       0.0733493411         20.0590909
1.272e+10       0.786167771         42.1023369         2.54981164         148.571574        0.106157561         116.497174       0.0732112284         19.9936478
1.2725e+10       0.785957888         41.9288886         2.54989639         148.388223         0.10620966         116.338723       0.0730730864         19.9289847
1.273e+10       0.785747744         41.7554915         2.54998091         148.204931        0.106261778         116.180331       0.0729349174         19.8651032
1.2735e+10        0.78553734         41.5821457         2.55006522         148.021698        0.106313914         116.021998       0.0727967238         19.8020048
1.274e+10       0.785326674         41.4088511          2.5501493         147.838522        0.106366068         115.863722       0.0726585078          19.739691
1.2745e+10       0.785115745         41.2356076         2.55023315         147.655404         0.10641824         115.705504       0.0725202719         19.6781633
1.275e+10       0.784904554         41.0624155         2.55031677         147.472344        0.106470429         115.547344       0.0723820184         19.6174232
1.2755e+10       0.784693098         40.8892745         2.55040016         147.289341        0.106522637         115.389241       0.0722437497         19.5574724
1.276e+10       0.784481379         40.7161847         2.55048331         147.106397        0.106574862         115.231197       0.0721054684         19.4983123
1.2765e+10       0.784269394         40.5431462         2.55056623         146.923509        0.106627105         115.073209       0.0719671769         19.4399445
1.277e+10       0.784057143         40.3701588          2.5506489         146.740679        0.106679366         114.915279       0.0718288776         19.3823706
1.2775e+10       0.783844625         40.1972227         2.55073133         146.557906        0.106731644         114.757406       0.0716905732         19.3255923
1.278e+10       0.783631841         40.0243379         2.55081352         146.375191        0.106783939         114.599591       0.0715522661         19.2696111
1.2785e+10       0.783418788         39.8515042         2.55089546         146.192532        0.106836252         114.441832        0.071413959         19.2144285
1.279e+10       0.783205467         39.6787219         2.55097715          146.00993        0.106888581          114.28413       0.0712756544         19.1600464
1.2795e+10       0.782991877         39.5059907         2.55105859         145.827385        0.106940928         114.126485        0.071137355         19.1064663
1.28e+10       0.782778016         39.3333108         2.55113978         145.644897        0.106993292         113.968897       0.0709990634         19.0536898
1.2805e+10       0.782563885         39.1606822         2.55122071         145.462465        0.107045673         113.811365       0.0708607824         19.0017186
1.281e+10       0.782349483         38.9881049         2.55130138          145.28009         0.10709807          113.65389       0.0707225146         18.9505544
1.2815e+10       0.782134809         38.8155788         2.55138179         145.097771        0.107150485         113.496471       0.0705842628         18.9001989
1.282e+10       0.781919862         38.6431041         2.55146194         144.915508        0.107202916         113.339108       0.0704460297         18.8506538
1.2825e+10       0.781704641         38.4706807         2.55154183         144.733302        0.107255363         113.181802       0.0703078181         18.8019207
1.283e+10       0.781489147         38.2983086         2.55162144         144.551152        0.107307827         113.024552       0.0701696308         18.7540014
1.2835e+10       0.781273378         38.1259878         2.55170079         144.369057        0.107360308         112.867357       0.0700314707         18.7068976
1.284e+10       0.781057333         37.9537184         2.55177987         144.187018        0.107412804         112.710218       0.0698933405          18.660611
1.2845e+10       0.780841013         37.7815004         2.55185867         144.005035        0.107465317         112.553135       0.0697552433         18.6151435
1.285e+10       0.780624415         37.6093337          2.5519372         143.823108        0.107517847         112.396108       0.0696171819         18.5704966
1.2855e+10       0.780407541         37.4372185         2.55201545         143.641236        0.107570392         112.239136       0.0694791592         18.5266723
1.286e+10       0.780190388         37.2651547         2.55209342          143.45942        0.107622953          112.08222       0.0693411782         18.4836722
1.2865e+10       0.779972956         37.0931423         2.55217111         143.277659         0.10767553         111.925359       0.0692032419         18.4414982
1.287e+10       0.779755245         36.9211814         2.55224852         143.095953        0.107728123         111.768553       0.0690653532          18.400152
1.2875e+10       0.779537254          36.749272         2.55232564         142.914302        0.107780732         111.611802       0.0689275153         18.3596355
1.288e+10       0.779318982         36.5774141         2.55240247         142.732706        0.107833356         111.455106       0.0687897311         18.3199503
1.2885e+10       0.779100429         36.4056078         2.55247901         142.551166        0.107885996         111.298466       0.0686520037         18.2810984
1.289e+10       0.778881594          36.233853         2.55255526          142.36968        0.107938651          111.14188       0.0685143363         18.2430816
1.2895e+10       0.778662475         36.0621497         2.55263122         142.188248        0.107991322         110.985348        0.068376732         18.2059016
1.29e+10       0.778443074         35.8904981         2.55270688         142.006872        0.108044008         110.828872       0.0682391939         18.1695603
1.2905e+10       0.778223388         35.7188981         2.55278225         141.825549        0.108096709         110.672449       0.0681017252         18.1340596
1.291e+10       0.778003417         35.5473498         2.55285731         141.644282        0.108149426         110.516082        0.067964329         18.0994013
1.2915e+10       0.777783161         35.3758531         2.55293208         141.463068        0.108202158         110.359768       0.0678270087         18.0655873
1.292e+10       0.777562619         35.2044082         2.55300654         141.281909        0.108254904         110.203509       0.0676897674         18.0326193
1.2925e+10        0.77734179          35.033015         2.55308069         141.100804        0.108307666         110.047304       0.0675526084         18.0004993
1.293e+10       0.777120674         34.8616736         2.55315454         140.919753        0.108360443         109.891153        0.067415535         17.9692291
1.2935e+10       0.776899269         34.6903839         2.55322808         140.738756        0.108413234         109.735056       0.0672785505         17.9388106
1.294e+10       0.776677576         34.5191461         2.55330131         140.557813         0.10846604         109.579013       0.0671416583         17.9092457
1.2945e+10       0.776455593         34.3479602         2.55337422         140.376923        0.108518861         109.423023       0.0670048617         17.8805363
1.295e+10       0.776233321         34.1768262         2.55344683         140.196087        0.108571696         109.267087        0.066868164         17.8526842
1.2955e+10       0.776010757         34.0057441         2.55351911         140.015305        0.108624546         109.111205       0.0667315688         17.8256913
1.296e+10       0.775787902         33.8347139         2.55359108         139.834576         0.10867741         108.955376       0.0665950793         17.7995596
1.2965e+10       0.775564755         33.6637358         2.55366273         139.653901        0.108730289         108.799601       0.0664586991         17.7742908
1.297e+10       0.775341316         33.4928097         2.55373406         139.473279        0.108783182         108.643879       0.0663224316          17.749887
1.2975e+10       0.775117583         33.3219356         2.55380506          139.29271        0.108836089          108.48821       0.0661862804           17.72635
1.298e+10       0.774893556         33.1511137         2.55387574         139.112194         0.10888901         108.332594       0.0660502488         17.7036817
1.2985e+10       0.774669234         32.9803439          2.5539461         138.931732        0.108941946         108.177032       0.0659143405         17.6818839
1.299e+10       0.774444617         32.8096263         2.55401612         138.751322        0.108994895         108.021522        0.065778559         17.6609587
1.2995e+10       0.774219704         32.6389609         2.55408582         138.570965        0.109047859         107.866065        0.065642908         17.6409079
1.3e+10       0.773994494         32.4683478         2.55415518          138.39066        0.109100836          107.71066       0.0655073908         17.6217334
1.3005e+10       0.773789937         32.2970616         2.55417021         138.211297        0.109155895         107.555747       0.0653421763         17.6105223
1.301e+10       0.773585103         32.1258261         2.55418495         138.031987        0.109210971         107.400887       0.0651771921         17.6003792
1.3015e+10       0.773379991         31.9546414         2.55419939         137.852731        0.109266063         107.246081        0.065012443          17.591308
1.302e+10       0.773174601         31.7835074         2.55421353         137.673529        0.109321171         107.091329        0.064847934         17.5833126
1.3025e+10       0.772968932         31.6124243         2.55422738          137.49438        0.109376295          106.93663         0.06468367         17.5763969
1.303e+10       0.772762984         31.4413921         2.55424092         137.315284        0.109431435         106.781984       0.0645196559         17.5705647
1.3035e+10       0.772556756         31.2704107         2.55425416         137.136242        0.109486591         106.627392       0.0643558967         17.5658198
1.304e+10       0.772350247         31.0994804          2.5542671         136.957254        0.109541763         106.472854       0.0641923974         17.5621663
1.3045e+10       0.772143457          30.928601         2.55427973         136.778318        0.109596951         106.318368       0.0640291632         17.5596079
1.305e+10       0.771936385         30.7577726         2.55429206         136.599436        0.109652155         106.163936        0.063866199         17.5581485
1.3055e+10        0.77172903         30.5869954         2.55430408         136.420607        0.109707374         106.009557         0.06370351         17.5577921
1.306e+10       0.771521392         30.4162692         2.55431579          136.24183        0.109762609          105.85523       0.0635411015         17.5585424
1.3065e+10        0.77131347         30.2455942         2.55432718         136.063107        0.109817859         105.700957       0.0633789785         17.5604034
1.307e+10       0.771105264         30.0749704         2.55433827         135.884436        0.109873125         105.546736       0.0632171464          17.563379
1.3075e+10       0.770896773         29.9043979         2.55434904         135.705819        0.109928406         105.392569       0.0630556103         17.5674731
1.308e+10       0.770687996         29.7338766         2.55435949         135.527253        0.109983703         105.238453       0.0628943757         17.5726894
1.3085e+10       0.770478932         29.5634067         2.55436963         135.348741        0.110039015         105.084391       0.0627334479         17.5790319
1.309e+10       0.770269582         29.3929882         2.55437945          135.17028        0.110094342          104.93038       0.0625728322         17.5865044
1.3095e+10       0.770059944         29.2226211         2.55438895         134.991872        0.110149685         104.776422       0.0624125341         17.5951109
1.31e+10       0.769850017         29.0523055         2.55439813         134.813517        0.110205043         104.622517       0.0622525589          17.604855
1.3105e+10       0.769639802         28.8820414         2.55440699         134.635214        0.110260415         104.468664       0.0620929123         17.6157408
1.311e+10       0.769429298         28.7118289         2.55441552         134.456962        0.110315803         104.314862       0.0619335997         17.6277719
1.3115e+10       0.769218503          28.541668         2.55442373         134.278763        0.110371206         104.161113       0.0617746267         17.6409522
1.312e+10       0.769007417         28.3715588         2.55443162         134.100616        0.110426624         104.007416       0.0616159988         17.6552856
1.3125e+10        0.76879604         28.2015013         2.55443917         133.922521        0.110482056         103.853771       0.0614577217         17.6707757
1.313e+10       0.768584371         28.0314955          2.5544464         133.744477        0.110537504         103.700177        0.061299801         17.6874264
1.3135e+10        0.76837241         27.8615416         2.55445329         133.566486        0.110592966         103.546636       0.0611422425         17.7052414
1.314e+10       0.768160155         27.6916396         2.55445986         133.388545        0.110648443         103.393145       0.0609850518         17.7242245
1.3145e+10       0.767947606         27.5217894         2.55446609         133.210657        0.110703935         103.239707       0.0608282348         17.7443793
1.315e+10       0.767734763         27.3519913         2.55447199          133.03282        0.110759441          103.08632       0.0606717971         17.7657096
1.3155e+10       0.767521625         27.1822451         2.55447756         132.855034        0.110814962         102.932984       0.0605157447         17.7882191
1.316e+10       0.767308191         27.0125511         2.55448278           132.6773        0.110870497           102.7797       0.0603600834         17.8119114
1.3165e+10       0.767094461         26.8429092         2.55448768         132.499617        0.110926047         102.626467       0.0602048191         17.8367901
1.317e+10       0.766880433         26.6733195         2.55449223         132.321985        0.110981611         102.473285       0.0600499577         17.8628588
1.3175e+10       0.766666108          26.503782         2.55449644         132.144405         0.11103719         102.320155       0.0598955052         17.8901211
1.318e+10       0.766451485         26.3342968         2.55450032         131.966875        0.111092783         102.167075       0.0597414675         17.9185806
1.3185e+10       0.766236563         26.1648639         2.55450385         131.789397         0.11114839         102.014047       0.0595878507         17.9482407
1.319e+10       0.766021342         25.9954835         2.55450704         131.611969        0.111204012         101.861069       0.0594346609          17.979105
1.3195e+10        0.76580582         25.8261555         2.55450988         131.434592        0.111259648         101.708142       0.0592819041         18.0111768
1.32e+10       0.765589998         25.6568801         2.55451238         131.257266        0.111315298         101.555266       0.0591295864         18.0444597
1.3205e+10       0.765373875         25.4876572         2.55451454          131.07999        0.111370962          101.40244        0.058977714         18.0789569
1.321e+10       0.765157449         25.3184869         2.55451635         130.902765         0.11142664         101.249665        0.058826293         18.1146718
1.3215e+10       0.764940721         25.1493694         2.55451781         130.725591        0.111482332         101.096941       0.0586753298         18.1516077
1.322e+10        0.76472369         24.9803046         2.55451892         130.548466        0.111538038         100.944266       0.0585248304         18.1897678
1.3225e+10       0.764506355         24.8112925         2.55451968         130.371393        0.111593758         100.791643       0.0583748012         18.2291555
1.323e+10       0.764288716         24.6423334          2.5545201         130.194369        0.111649492         100.639069       0.0582252485         18.2697737
1.3235e+10       0.764070771         24.4734272         2.55452016         130.017396        0.111705239         100.486546       0.0580761786         18.3116256
1.324e+10       0.763852521          24.304574         2.55451987         129.840473        0.111761001         100.334073       0.0579275979         18.3547143
1.3245e+10       0.763633965         24.1357738         2.55451922           129.6636        0.111816776          100.18165       0.0577795126         18.3990429
1.325e+10       0.763415102         23.9670267         2.55451822         129.486777        0.111872565         100.029277       0.0576319294         18.4446141
1.3255e+10       0.763195931         23.7983328         2.55451687         129.310004        0.111928368         99.8769543       0.0574848545         18.4914311
1.326e+10       0.762976452         23.6296921         2.55451516         129.133281        0.111984185         99.7246812       0.0573382945         18.5394965
1.3265e+10       0.762756665         23.4611047          2.5545131         128.956608        0.112040015         99.5724578       0.0571922558         18.5888132
1.327e+10       0.762536568         23.2925706         2.55451067         128.779984        0.112095859         99.4202842       0.0570467449         18.6393839
1.3275e+10       0.762316161           23.12409         2.55450789          128.60341        0.112151716         99.2681601       0.0569017685         18.6912112
1.328e+10       0.762095444         22.9556628         2.55450475         128.426886        0.112207587         99.1160857       0.0567573331         18.7442978
1.3285e+10       0.761874415         22.7872892         2.55450125         128.250411        0.112263471         98.9640608       0.0566134452         18.7986462
1.329e+10       0.761653075         22.6189692          2.5544974         128.073985        0.112319369         98.8120852       0.0564701115         18.8542587
1.3295e+10       0.761431423         22.4507028         2.55449317         127.897609         0.11237528         98.6601591       0.0563273386         18.9111379
1.33e+10       0.761209457         22.2824902         2.55448859         127.721282        0.112431205         98.5082823       0.0561851332         18.9692859
1.3305e+10       0.760987178         22.1143314         2.55448365         127.545005        0.112487143         98.3564546        0.056043502          19.028705
1.331e+10       0.760764584         21.9462264         2.55447834         127.368776        0.112543094         98.2046762       0.0559024516         19.0893975
1.3315e+10       0.760541676         21.7781753         2.55447267         127.192597        0.112599059         98.0529468       0.0557619889         19.1513652
1.332e+10       0.760318452         21.6101783         2.55446663         127.016466        0.112655037         97.9012664       0.0556221205         19.2146102
1.3325e+10       0.760094912         21.4422353         2.55446023         126.840385        0.112711028          97.749635       0.0554828533         19.2791345
1.333e+10       0.759871056         21.2743464         2.55445346         126.664352        0.112767032         97.5980524        0.055344194         19.3449397
1.3335e+10       0.759646882         21.1065117         2.55444633         126.488369         0.11282305         97.4465187       0.0552061494         19.4120276
1.334e+10        0.75942239         20.9387312         2.55443883         126.312434         0.11287908         97.2950337       0.0550687263         19.4803999
1.3345e+10        0.75919758         20.7710051         2.55443097         126.136547        0.112935124         97.1435974       0.0549319317         19.5500579
1.335e+10        0.75897245         20.6033334         2.55442273          125.96071        0.112991181         96.9922098       0.0547957723         19.6210033
1.3355e+10       0.758747001         20.4357161         2.55441413         125.784921        0.113047252         96.8408706       0.0546602551         19.6932372
1.336e+10       0.758521232         20.2681533         2.55440516          125.60918        0.113103335         96.6895799       0.0545253868         19.7667609
1.3365e+10       0.758295142         20.1006451         2.55439581         125.433488        0.113159431         96.5383377       0.0543911745         19.8415755
1.337e+10        0.75806873         19.9331916          2.5543861         125.257844         0.11321554         96.3871438       0.0542576251         19.9176821
1.3375e+10       0.757841996         19.7657928         2.55437602         125.082248        0.113271663         96.2359981       0.0541247454         19.9950814
1.338e+10       0.757614939         19.5984489         2.55436557         124.906701        0.113327798         96.0849007       0.0539925424         20.0737742
1.3385e+10       0.757387559         19.4311597         2.55435475         124.731201        0.113383946         95.9338514       0.0538610232         20.1537613
1.339e+10       0.757159855         19.2639255         2.55434355          124.55575        0.113440107         95.7828502       0.0537301945         20.2350431
1.3395e+10       0.756931826         19.0967464         2.55433198         124.380347        0.113496281         95.6318971       0.0536000635         20.3176201
1.34e+10       0.756703472         18.9296223         2.55432004         124.204992        0.113552468         95.4809918       0.0534706371         20.4014925
1.3405e+10       0.756474792         18.7625533         2.55430773         124.029684        0.113608668         95.3301345       0.0533419222         20.4866605
1.341e+10       0.756245786         18.5955395         2.55429505         123.854425        0.113664881         95.1793249       0.0532139259         20.5731241
1.3415e+10       0.756016453         18.4285811         2.55428199         123.679213        0.113721107         95.0285632       0.0530866552         20.6608833
1.342e+10       0.755786792          18.261678         2.55426855         123.504049        0.113777345         94.8778491       0.0529601171         20.7499378
1.3425e+10       0.755556803         18.0948303         2.55425475         123.328933        0.113833597         94.7271826       0.0528343186         20.8402871
1.343e+10       0.755326485         17.9280381         2.55424057         123.153864        0.113889861         94.5765637       0.0527092667         20.9319308
1.3435e+10       0.755095838         17.7613015         2.55422601         122.978842        0.113946138         94.4259923       0.0525849684         21.0248683
1.344e+10       0.754864861         17.5946205         2.55421108         122.803868        0.114002427         94.2754684       0.0524614307         21.1190986
1.3445e+10       0.754633553         17.4279953         2.55419578         122.628942         0.11405873         94.1249918       0.0523386606         21.2146209
1.345e+10       0.754401914         17.2614258         2.55418009         122.454062        0.114115045         93.9745625       0.0522166652          21.311434
1.3455e+10       0.754169943         17.0949122         2.55416404          122.27923        0.114171373         93.8241804       0.0520954514         21.4095367
1.346e+10       0.753937639         16.9284545         2.55414761         122.104446        0.114227714         93.6738455       0.0519750262         21.5089275
1.3465e+10       0.753705003         16.7620528          2.5541308         121.929708        0.114284067         93.5235578       0.0518553967         21.6096049
1.347e+10       0.753472033         16.5957072         2.55411361         121.755017        0.114340434         93.3733171       0.0517365698         21.7115671
1.3475e+10       0.753238728         16.4294178         2.55409605         121.580373        0.114396813         93.2231234       0.0516185526         21.8148121
1.348e+10       0.753005089         16.2631846         2.55407812         121.405777        0.114453204         93.0729766       0.0515013518          21.919338
1.3485e+10       0.752771114         16.0970076          2.5540598         121.231227        0.114509609         92.9228766       0.0513849746         22.0251424
1.349e+10       0.752536803         15.9308871         2.55404112         121.056724        0.114566026         92.7728235       0.0512694279         22.1322229
1.3495e+10       0.752302156          15.764823         2.55402205         120.882267        0.114622455         92.6228171       0.0511547186         22.2405769
1.35e+10       0.752067171         15.5988154         2.55400261         120.707857        0.114678898         92.4728574       0.0510408536         22.3502017
1.3505e+10       0.751831849         15.4328644         2.55398279         120.533494        0.114735353         92.3229443       0.0509278398         22.4610942
1.351e+10       0.751596188           15.26697         2.55396259         120.359178         0.11479182         92.1730778       0.0508156841         22.5732514
1.3515e+10       0.751360187         15.1011324         2.55394202         120.184908        0.114848301         92.0232578       0.0507043933         22.6866699
1.352e+10       0.751123848         14.9353517         2.55392107         120.010684        0.114904794         91.8734841       0.0505939744         22.8013462
1.3525e+10       0.750887168         14.7696278         2.55389974         119.836507          0.1149613         91.7237569       0.0504844341         22.9172766
1.353e+10       0.750650147         14.6039609         2.55387803         119.662376        0.115017818          91.574076       0.0503757792         23.0344571
1.3535e+10       0.750412784          14.438351         2.55385595         119.488291        0.115074349         91.4244413       0.0502680165         23.1528837
1.354e+10        0.75017508         14.2727982          2.5538335         119.314253        0.115130893         91.2748527       0.0501611527         23.2725521
1.3545e+10       0.749937032         14.1073026         2.55381066          119.14026        0.115187449         91.1253104       0.0500551946         23.3934579
1.355e+10       0.749698642         13.9418643         2.55378745         118.966314        0.115244018          90.975814       0.0499501488         23.5155962
1.3555e+10       0.749459908         13.7764834         2.55376386         118.792414          0.1153006         90.8263637       0.0498460221         23.6389622
1.356e+10       0.749220829         13.6111598          2.5537399         118.618559        0.115357194         90.6769593       0.0497428209         23.7635508
1.3565e+10       0.748981405         13.4458938         2.55371556         118.444751        0.115413802         90.5276008        0.049640552         23.8893568
1.357e+10       0.748741635         13.2806853         2.55369084         118.270988        0.115470421         90.3782881       0.0495392218         24.0163745
1.3575e+10        0.74850152         13.1155345         2.55366575         118.097271        0.115527054         90.2290211       0.0494388369         24.1445983
1.358e+10       0.748261057         12.9504414         2.55364028           117.9236        0.115583699         90.0797999       0.0493394037         24.2740222
1.3585e+10       0.748020247         12.7854061         2.55361444         117.749974        0.115640357         89.9306243       0.0492409287         24.4046401
1.359e+10       0.747779089         12.6204286         2.55358822         117.576394        0.115697027         89.7814943       0.0491434182         24.5364456
1.3595e+10       0.747537582         12.4555092         2.55356162          117.40286        0.115753711         89.6324097       0.0490468787          24.669432
1.36e+10       0.747295726         12.2906477         2.55353465         117.229371        0.115810407         89.4833707       0.0489513164         24.8035927
1.3605e+10        0.74705352         12.1258444         2.55350731         117.055927        0.115867115          89.334377       0.0488567376         24.9389206
1.361e+10       0.746810963         11.9610992         2.55347959         116.882529        0.115923837         89.1854287       0.0487631484         25.0754084
1.3615e+10       0.746568056         11.7964123         2.55345149         116.709176        0.115980571         89.0365256        0.048670555         25.2130486
1.362e+10       0.746324797         11.6317838         2.55342302         116.535868        0.116037318         88.8876678       0.0485789635         25.3518337
1.3625e+10       0.746081185         11.4672136         2.55339418         116.362605        0.116094078         88.7388551         0.04848838         25.4917556
1.363e+10       0.745837221          11.302702         2.55336497         116.189387         0.11615085         88.5900875       0.0483988104         25.6328062
1.3635e+10       0.745592904         11.1382489         2.55333538         116.016215        0.116207636         88.4413649       0.0483102607         25.7749772
1.364e+10       0.745348232         10.9738545         2.55330542         115.843087        0.116264434         88.2926873       0.0482227367           25.91826
1.3645e+10       0.745103206         10.8095187         2.55327508         115.670005        0.116321245         88.1440546       0.0481362442         26.0626458
1.365e+10       0.744857824         10.6452418         2.55324438         115.496967        0.116378068         87.9954668        0.048050789         26.2081254
1.3655e+10       0.744612087         10.4810238          2.5532133         115.323974        0.116434905         87.8469237       0.0479663767         26.3546898
1.366e+10       0.744365994         10.3168647         2.55318185         115.151025        0.116491754         87.6984255        0.047883013         26.5023293
1.3665e+10       0.744119543         10.1527647         2.55315003         114.978122        0.116548617         87.5499718       0.0478007033         26.6510342
1.367e+10       0.743872735         9.98872375         2.55311784         114.805263        0.116605492         87.4015628       0.0477194532         26.8007946
1.3675e+10       0.743625568         9.82474201         2.55308528         114.632448         0.11666238         87.2531984        0.047639268         26.9516003
1.368e+10       0.743378043         9.66081954         2.55305235         114.459678        0.116719282         87.1048784        0.047560153         27.1034409
1.3685e+10       0.743130158         9.49695642         2.55301905         114.286953        0.116776196         86.9566029       0.0474821136         27.2563058
1.369e+10       0.742881914         9.33315272         2.55298538         114.114272        0.116833123         86.8083718       0.0474051547         27.4101841
1.3695e+10       0.742633309         9.16940851         2.55295134         113.941635        0.116890063          86.660185       0.0473292816         27.5650648
1.37e+10       0.742384342         9.00572389         2.55291693         113.769042        0.116947016         86.5120424       0.0472544993         27.7209366
1.3705e+10       0.742135014         8.84209893         2.55288216         113.596494        0.117003982          86.363944       0.0471808125         27.8777878
1.371e+10       0.741885324          8.6785337         2.55284702          113.42399        0.117060961         86.2158898       0.0471082262         28.0356069
1.3715e+10       0.741635271         8.51502829         2.55281152          113.25153        0.117117954         86.0678797       0.0470367451         28.1943817
1.372e+10       0.741384854         8.35158276         2.55277564         113.079114        0.117174959         85.9199136       0.0469663739         28.3541002
1.3725e+10       0.741134073         8.18819721         2.55273941         112.906741        0.117231978         85.7719914       0.0468971171           28.51475
1.373e+10       0.740882927          8.0248717         2.55270281         112.734413        0.117289009         85.6241131       0.0468289792         28.6763184
1.3735e+10       0.740631416         7.86160632         2.55266584         112.562129        0.117346054         85.4762787       0.0467619645         28.8387925
1.374e+10       0.740379539         7.69840115         2.55262851         112.389888        0.117403112         85.3284881       0.0466960774         29.0021595
1.3745e+10       0.740127296         7.53525626         2.55259082         112.217691        0.117460184         85.1807412        0.046631322         29.1664059
1.375e+10       0.739874685         7.37217173         2.55255277         112.045538        0.117517268          85.033038       0.0465677024         29.3315184
1.3755e+10       0.739621707         7.20914763         2.55251435         111.873428        0.117574366         84.8853783       0.0465052225         29.4974833
1.376e+10       0.739368361         7.04618406         2.55247557         111.701362        0.117631477         84.7377623       0.0464438863         29.6642867
1.3765e+10       0.739114645         6.88328107         2.55243644          111.52934        0.117688602         84.5901897       0.0463836976         29.8319146
1.377e+10       0.738860561         6.72043877         2.55239694         111.357361         0.11774574         84.4426605       0.0463246599         30.0003527
1.3775e+10       0.738606106         6.55765721         2.55235708         111.185425        0.117802891         84.2951747       0.0462667769         30.1695866
1.378e+10        0.73835128         6.39493648         2.55231687         111.013532        0.117860056         84.1477322       0.0462100519         30.3396017
1.3785e+10       0.738096084         6.23227666          2.5522763         110.841683        0.117917235          84.000333       0.0461544885          30.510383
1.379e+10       0.737840515         6.06967783         2.55223537         110.669877        0.117974426         83.8529769       0.0461000897         30.6819157
1.3795e+10       0.737584575         5.90714006         2.55219408         110.498114        0.118031632          83.705664       0.0460468587         30.8541844
1.38e+10       0.737328261         5.74466343         2.55215244         110.326394        0.118088851         83.5583942       0.0459947985          31.027174
1.3805e+10       0.737071573         5.58224802         2.55211045         110.154717        0.118146083         83.4111674       0.0459439119         31.2008687
1.381e+10       0.736814512         5.41989391          2.5520681         109.983083        0.118203329         83.2639835       0.0458942018          31.375253
1.3815e+10       0.736557075         5.25760117          2.5520254         109.811493        0.118260589         83.1168425       0.0458456709         31.5503109
1.382e+10       0.736299264         5.09536989         2.55198234         109.639944        0.118317863         82.9697444       0.0457983215         31.7260264
1.3825e+10       0.736041076         4.93320014         2.55193894         109.468439         0.11837515          82.822689       0.0457521562         31.9023834
1.383e+10       0.735782512           4.771092         2.55189518         109.296976        0.118432451         82.6756763       0.0457071772         32.0793655
1.3835e+10       0.735523571         4.60904555         2.55185107         109.125556        0.118489766         82.5287063       0.0456633868         32.2569562
1.384e+10       0.735264252         4.44706086         2.55180662         108.954179        0.118547095         82.3817789       0.0456207868         32.4351389
1.3845e+10       0.735004554         4.28513801         2.55176181         108.782844        0.118604438          82.234894       0.0455793794         32.6138969
1.385e+10       0.734744478         4.12327709         2.55171666         108.611552        0.118661794         82.0880516       0.0455391662         32.7932133
1.3855e+10       0.734484023         3.96147816         2.55167116         108.440302        0.118719165         81.9412517       0.0455001489         32.9730711
1.386e+10       0.734223187         3.79974131         2.55162532         108.269094         0.11877655          81.794494        0.045462329          33.153453
1.3865e+10       0.733961971         3.63806661         2.55157913         108.097929        0.118833948         81.6477787        0.045425708          33.334342
1.387e+10       0.733700373         3.47645414         2.55153259         107.926806        0.118891361         81.5011056       0.0453902872         33.5157206
1.3875e+10       0.733438394         3.31490398         2.55148572         107.755725        0.118948788         81.3544747       0.0453560676         33.6975714
1.388e+10       0.733176032         3.15341621          2.5514385         107.584686         0.11900623         81.2078859       0.0453230504         33.8798767
1.3885e+10       0.732913287         2.99199089         2.55139094         107.413689        0.119063685         81.0613392       0.0452912363          34.062619
1.389e+10       0.732650159         2.83062812         2.55134304         107.242734        0.119121155         80.9148345       0.0452606262         34.2457805
1.3895e+10       0.732386646         2.66932796          2.5512948         107.071822        0.119178639         80.7683716       0.0452312206         34.4293434
1.39e+10       0.732122749          2.5080905         2.55124622         106.900951        0.119236137         80.6219507       0.0452030201         34.6132897
1.3905e+10       0.731858467          2.3469158         2.55119731         106.730122         0.11929365         80.4755716        0.045176025         34.7976016
1.391e+10       0.731593798         2.18580396         2.55114806         106.559334        0.119351177         80.3292342       0.0451502356         34.9822609
1.3915e+10       0.731328743         2.02475504         2.55109847         106.388589        0.119408719         80.1829386       0.0451256519         35.1672496
1.392e+10       0.731063301         1.86376912         2.55104855         106.217885        0.119466275         80.0366846       0.0451022738         35.3525495
1.3925e+10       0.730797471         1.70284627          2.5509983         106.047222        0.119523846         79.8904721       0.0450801012         35.5381425
1.393e+10       0.730531253         1.54198659         2.55094771         105.876601        0.119581432         79.7443012       0.0450591338         35.7240102
1.3935e+10       0.730264646         1.38119013         2.55089679         105.706022        0.119639032         79.5981717       0.0450393712         35.9101345
1.394e+10        0.72999765         1.22045698         2.55084554         105.535484        0.119696647         79.4520836       0.0450208126         36.0964971
1.3945e+10       0.729730263         1.05978721         2.55079396         105.364987        0.119754277         79.3060368       0.0450034575         36.2830796
1.395e+10       0.729462486        0.899180897         2.55074206         105.194531        0.119811922         79.1600313       0.0449873049         36.4698638
1.3955e+10       0.729194318        0.738638123         2.55068982         105.024117        0.119869582          79.014067        0.044972354         36.6568312
1.396e+10       0.728925758         0.57815896         2.55063726         104.853744        0.119927256         78.8681439       0.0449586034         36.8439636
1.3965e+10       0.728656806        0.417743484         2.55058438         104.683412        0.119984946         78.7222618        0.044946052         37.0312426
1.397e+10        0.72838746        0.257391771         2.55053117         104.513121        0.120042651         78.5764208       0.0449346984         37.2186499
1.3975e+10       0.728117721       0.0971038958         2.55047764         104.342871        0.120100371         78.4306207       0.0449245411         37.4061673
1.398e+10       0.727847588      -0.0631200652         2.55042379         104.172662        0.120158106         78.2848616       0.0449155784         37.5937764
1.3985e+10       0.727577061       -0.223280037         2.55036961         104.002493        0.120215856         78.1391432       0.0449078085          37.781459
1.399e+10       0.727306138       -0.383375944         2.55031512         103.832366        0.120273621         77.9934657       0.0449012295         37.9691968
1.3995e+10       0.727034819       -0.543407711         2.55026031         103.662279        0.120331402         77.8478289       0.0448958392         38.1569719
1.4e+10       0.726763104       -0.703375264         2.55020518         103.492233        0.120389198         77.7022327       0.0448916357         38.3447659
1.4005e+10       0.726516245       -0.863306103         2.55013202         103.323782        0.120445244         77.5580823       0.0448632413         38.5859618
1.401e+10       0.726269023        -1.02317399         2.55005854         103.155374        0.120501303         77.4139743       0.0448366403         38.8275684
1.4015e+10       0.726021437        -1.18297887         2.54998475         102.987009        0.120557375         77.2699087       0.0448118332         39.0695543
1.402e+10       0.725773488        -1.34272067         2.54991065         102.818685        0.120613461         77.1258855       0.0447888202         39.3118883
1.4025e+10       0.725525173        -1.50239932         2.54983624         102.650404         0.12066956         76.9819045       0.0447676011         39.5545389
1.403e+10       0.725276494        -1.66201476         2.54976152         102.482166        0.120725673         76.8379657       0.0447481756         39.7974746
1.4035e+10       0.725027448        -1.82156693         2.54968649         102.313969          0.1207818         76.6940691       0.0447305431         40.0406638
1.404e+10       0.724778036        -1.98105576         2.54961115         102.145815         0.12083794         76.5502146       0.0447147028         40.2840749
1.4045e+10       0.724528258        -2.14048118         2.54953551         101.977702        0.120894094         76.4064021       0.0447006535         40.5276762
1.405e+10       0.724278111        -2.29984314         2.54945957         101.809632        0.120950261         76.2626316       0.0446883937         40.7714361
1.4055e+10       0.724027597        -2.45914156         2.54938332         101.641603        0.121006443         76.1189031       0.0446779219         41.0153229
1.406e+10       0.723776714        -2.61837639         2.54930677         101.473616        0.121062638         75.9752164       0.0446692361         41.2593049
1.4065e+10       0.723525462        -2.77754755         2.54922991         101.305671        0.121118848         75.8315715       0.0446623341         41.5033505
1.407e+10        0.72327384          -2.936655         2.54915277         101.137768        0.121175071         75.6879684       0.0446572135         41.7474282
1.4075e+10       0.723021848        -3.09569866         2.54907532         100.969907        0.121231309         75.5444069       0.0446538715         41.9915064
1.408e+10       0.722769485        -3.25467846         2.54899757         100.802087        0.121287561         75.4008871       0.0446523052         42.2355537
1.4085e+10       0.722516751        -3.41359436         2.54891954         100.634309        0.121343827         75.2574089       0.0446525114         42.4795388
1.409e+10       0.722263645        -3.57244628          2.5488412         100.466572        0.121400107         75.1139721       0.0446544866         42.7234305
1.4095e+10       0.722010166        -3.73123416         2.54876258         100.298877        0.121456402         74.9705769        0.044658227         42.9671976
1.41e+10       0.721756314        -3.88995795         2.54868367         100.131223        0.121512712          74.827223       0.0446637287         43.2108093
1.4105e+10       0.721502088        -4.04861757         2.54860446         99.9636105        0.121569035         74.6839105       0.0446709875         43.4542347
1.411e+10       0.721247489        -4.20721297         2.54852497         99.7960392        0.121625374         74.5406392       0.0446799987         43.6974432
1.4115e+10       0.720992514        -4.36574408          2.5484452         99.6285092        0.121681727         74.3974092       0.0446907578         43.9404044
1.412e+10       0.720737165        -4.52421085         2.54836513         99.4610203        0.121738095         74.2542203       0.0447032596          44.183088
1.4125e+10       0.720481439        -4.68261321         2.54828479         99.2935726        0.121794478         74.1110726       0.0447174991         44.4254641
1.413e+10       0.720225337        -4.84095111         2.54820416         99.1261658        0.121850876         73.9679658       0.0447334707         44.6675028
1.4135e+10       0.719968858        -4.99922447         2.54812325         98.9588001        0.121907288         73.8249001       0.0447511687         44.9091745
1.414e+10       0.719712002        -5.15743324         2.54804207         98.7914753        0.121963716         73.6818753       0.0447705873         45.1504501
1.4145e+10       0.719454767        -5.31557737          2.5479606         98.6241913        0.122020159         73.5388913       0.0447917202         45.3913005
1.415e+10       0.719197154        -5.47365678         2.54787887         98.4569482        0.122076617         73.3959482        0.044814561          45.631697
1.4155e+10       0.718939162        -5.63167143         2.54779685         98.2897457         0.12213309         73.2530457       0.0448391031          45.871611
1.416e+10        0.71868079        -5.78962125         2.54771457          98.122584        0.122189579          73.110184       0.0448653398         46.1110145
1.4165e+10       0.718422038        -5.94750618         2.54763201         97.9554629        0.122246083         72.9673629       0.0448932639         46.3498796
1.417e+10       0.718162904        -6.10532616         2.54754918         97.7883823        0.122302603         72.8245823       0.0449228682         46.5881789
1.4175e+10        0.71790339        -6.26308114         2.54746609         97.6213422        0.122359138         72.6818422       0.0449541451         46.8258851
1.418e+10       0.717643493        -6.42077105         2.54738272         97.4543426        0.122415689         72.5391426       0.0449870871         47.0629716
1.4185e+10       0.717383214        -6.57839584          2.5472991         97.2873834        0.122472256         72.3964834       0.0450216861         47.2994118
1.419e+10       0.717122552        -6.73595546         2.54721521         97.1204644        0.122528838         72.2538644       0.0450579342         47.5351797
1.4195e+10       0.716861506        -6.89344983         2.54713105         96.9535858        0.122585437         72.1112858        0.045095823         47.7702496
1.42e+10       0.716600076         -7.0508789         2.54704664         96.7867473        0.122642051         71.9687473       0.0451353441         48.0045963
1.4205e+10       0.716338261        -7.20824263         2.54696197         96.6199489        0.122698682         71.8262489       0.0451764887         48.2381946
1.421e+10       0.716076061        -7.36554094         2.54687704         96.4531906        0.122755328         71.6837906       0.0452192481         48.4710203
1.4215e+10       0.715813475        -7.52277379         2.54679186         96.2864723        0.122811991         71.5413723       0.0452636132         48.7030492
1.422e+10       0.715550503        -7.67994111         2.54670642          96.119794         0.12286867          71.398994       0.0453095748         48.9342577
1.4225e+10       0.715287143        -7.83704286         2.54662073         95.9531555        0.122925366         71.2566555       0.0453571235         49.1646224
1.423e+10       0.715023396        -7.99407897         2.54653479         95.7865569        0.122982078         71.1143569       0.0454062498         49.3941207
1.4235e+10       0.714759261        -8.15104938          2.5464486          95.619998        0.123038807          70.972098        0.045456944         49.6227301
1.424e+10       0.714494738        -8.30795405         2.54636216         95.4534788        0.123095552         70.8298788       0.0455091963         49.8504287
1.4245e+10       0.714229825        -8.46479292         2.54627548         95.2869993        0.123152314         70.6876993       0.0455629965          50.077195
1.425e+10       0.713964522        -8.62156594         2.54618855         95.1205593        0.123209093         70.5455593       0.0456183346         50.3030081
1.4255e+10       0.713698829        -8.77827303         2.54610139         94.9541588        0.123265889         70.4034588       0.0456752003         50.5278474
1.426e+10       0.713432746        -8.93491417         2.54601398         94.7877978        0.123322701         70.2613978       0.0457335831         50.7516927
1.4265e+10        0.71316627        -9.09148928         2.54592633         94.6214761        0.123379531         70.1193761       0.0457934724         50.9745245
1.427e+10       0.712899403        -9.24799832         2.54583844         94.4551938        0.123436378         69.9773938       0.0458548575         51.1963235
1.4275e+10       0.712632143        -9.40444123         2.54575032         94.2889507        0.123493242         69.8354507       0.0459177277         51.4170712
1.428e+10       0.712364491        -9.56081796         2.54566197         94.1227468        0.123550124         69.6935468       0.0459820719         51.6367492
1.4285e+10       0.712096444        -9.71712846         2.54557338          93.956582        0.123607023          69.551682        0.046047879         51.8553399
1.429e+10       0.711828003        -9.87337267         2.54548456         93.7904563         0.12366394         69.4098563        0.046115138          52.072826
1.4295e+10       0.711559168        -10.0295505         2.54539551         93.6243696        0.123720874         69.2680696       0.0461838375         52.2891907
1.43e+10       0.711289937         -10.185662         2.54530624         93.4583218        0.123777826         69.1263218       0.0462539661         52.5044176
1.4305e+10       0.711020311        -10.3417071         2.54521674         93.2923129        0.123834796         68.9846129       0.0463255124          52.718491
1.431e+10       0.710750288        -10.4976856         2.54512702         93.1263428        0.123891783         68.8429428       0.0463984647         52.9313955
1.4315e+10       0.710479868        -10.6535976         2.54503708         92.9604114        0.123948789         68.7013114       0.0464728114         53.1431163
1.432e+10        0.71020905         -10.809443         2.54494691         92.7945187        0.124005813         68.5597187       0.0465485407         53.3536388
1.4325e+10       0.709937835        -10.9652217         2.54485653         92.6286646        0.124062854         68.4181646       0.0466256408         53.5629493
1.433e+10        0.70966622        -11.1209338         2.54476593          92.462849        0.124119915          68.276649       0.0467040999         53.7710342
1.4335e+10       0.709394207        -11.2765791         2.54467512         92.2970719        0.124176993         68.1351719       0.0467839058         53.9778806
1.434e+10       0.709121794        -11.4321576         2.54458409         92.1313332         0.12423409         67.9937332       0.0468650466         54.1834759
1.4345e+10        0.70884898        -11.5876692         2.54449285         91.9656329        0.124291206         67.8523329       0.0469475101         54.3878082
1.435e+10       0.708575766         -11.743114         2.54440141         91.7999708         0.12434834         67.7109708       0.0470312843         54.5908659
1.4355e+10        0.70830215        -11.8984918         2.54430975          91.634347        0.124405493          67.569647       0.0471163568         54.7926377
1.436e+10       0.708028132        -12.0538026         2.54421789         91.4687613        0.124462664         67.4283613       0.0472027154         54.9931132
1.4365e+10       0.707753712        -12.2090463         2.54412583         91.3032136        0.124519855         67.2871136       0.0472903477          55.192282
1.437e+10       0.707478888         -12.364223         2.54403356          91.137704        0.124577065          67.145904       0.0473792415         55.3901345
1.4375e+10       0.707203661        -12.5193325         2.54394109         90.9722323        0.124634293         67.0047323       0.0474693843         55.5866613
1.438e+10        0.70692803        -12.6743749         2.54384843         90.8067985        0.124691541         66.8635985       0.0475607637         55.7818535
1.4385e+10       0.706651994          -12.82935         2.54375557         90.6414025        0.124748809         66.7225025       0.0476533672         55.9757028
1.439e+10       0.706375553        -12.9842578         2.54366251         90.4760443        0.124806095         66.5814443       0.0477471824         56.1682011
1.4395e+10       0.706098706        -13.1390983         2.54356926         90.3107237        0.124863402         66.4404237       0.0478421966         56.3593408
1.44e+10       0.705821452        -13.2938714         2.54347582         90.1454407        0.124920728         66.2994407       0.0479383974          56.549115
1.4405e+10       0.705543792        -13.4485771         2.54338219         89.9801953        0.124978073         66.1584953       0.0480357723         56.7375167
1.441e+10       0.705265724        -13.6032153         2.54328837         89.8149873        0.125035439         66.0175873       0.0481343087         56.9245397
1.4415e+10       0.704987248         -13.757786         2.54319436         89.6498167        0.125092824         65.8767167        0.048233994         57.1101781
1.442e+10       0.704708363        -13.9122891         2.54310017         89.4846835        0.125150229         65.7358835       0.0483348156         57.2944265
1.4425e+10       0.704429069        -14.0667247          2.5430058         89.3195875        0.125207655         65.5950875        0.048436761         57.4772796
1.443e+10       0.704149366        -14.2210926         2.54291125         89.1545287        0.125265101         65.4543287       0.0485398176         57.6587328
1.4435e+10       0.703869252        -14.3753928         2.54281652          88.989507        0.125322567          65.313607       0.0486439727         57.8387817
1.444e+10       0.703588727        -14.5296252         2.54272162         88.8245224        0.125380053         65.1729224        0.048749214         58.0174224
1.4445e+10       0.703307791        -14.6837899         2.54262654         88.6595748         0.12543756         65.0322748       0.0488555288         58.1946513
1.445e+10       0.703026443        -14.8378868         2.54253128          88.494664        0.125495088          64.891664       0.0489629045         58.3704652
1.4455e+10       0.702744683        -14.9919157         2.54243586         88.3297902        0.125552636         64.7510902       0.0490713286         58.5448612
1.446e+10       0.702462509        -15.1458768         2.54234027         88.1649531        0.125610206         64.6105531       0.0491807887         58.7178367
1.4465e+10       0.702179922        -15.2997699         2.54224451         88.0001527        0.125667796         64.4700527       0.0492912723         58.8893898
1.447e+10       0.701896921        -15.4535951         2.54214858         87.8353889        0.125725407         64.3295889       0.0494027669         59.0595184
1.4475e+10       0.701613505        -15.6073522          2.5420525         87.6706617        0.125783039         64.1891617         0.04951526         59.2282212
1.448e+10       0.701329674        -15.7610412         2.54195625          87.505971        0.125840693          64.048771       0.0496287393         59.3954968
1.4485e+10       0.701045427        -15.9146621         2.54185984         87.3413167        0.125898368         63.9084167       0.0497431924         59.5613446
1.449e+10       0.700760763        -16.0682148         2.54176327         87.1766987        0.125956065         63.7680987       0.0498586069          59.725764
1.4495e+10       0.700475683        -16.2216993         2.54166655         87.0121171        0.126013783         63.6278171       0.0499749706         59.8887546
1.45e+10       0.700190185        -16.3751156         2.54156967         86.8475716        0.126071523         63.4875716       0.0500922712         60.0503167
1.4505e+10        0.69990427        -16.5284636         2.54147265         86.6830622        0.126129284         63.3473622       0.0502104965         60.2104504
1.451e+10       0.699617935        -16.6817433         2.54137547          86.518589        0.126187068          63.207189       0.0503296342         60.3691566
1.4515e+10       0.699331182        -16.8349546         2.54127814         86.3541517        0.126244873         63.0670517       0.0504496724          60.526436
1.452e+10       0.699044009        -16.9880976         2.54118067         86.1897503        0.126302701         62.9269503       0.0505705988           60.68229
1.4525e+10       0.698756416        -17.1411721         2.54108305         86.0253848        0.126360551         62.7868848       0.0506924014         60.8367198
1.453e+10       0.698468402        -17.2941781          2.5409853          85.861055        0.126418423          62.646855       0.0508150683         60.9897274
1.4535e+10       0.698179966        -17.4471156          2.5408874         85.6967609        0.126476318         62.5068609       0.0509385875         61.1413145
1.454e+10       0.697891109        -17.5999845         2.54078936         85.5325025        0.126534235         62.3669025       0.0510629471         61.2914835
1.4545e+10        0.69760183        -17.7527849         2.54069119         85.3682796        0.126592175         62.2269796       0.0511881353         61.4402368
1.455e+10       0.697312127        -17.9055166         2.54059288         85.2040922        0.126650138         62.0870922       0.0513141403          61.587577
1.4555e+10       0.697022001        -18.0581796         2.54049444         85.0399401        0.126708123         61.9472401       0.0514409505         61.7335071
1.456e+10       0.696731451         -18.210774         2.54039586         84.8758234        0.126766132         61.8074234       0.0515685541         61.8780302
1.4565e+10       0.696440476        -18.3632996         2.54029716          84.711742        0.126824163          61.667642       0.0516969396         62.0211496
1.457e+10       0.696149076        -18.5157565         2.54019834         84.5476957        0.126882218         61.5278957       0.0518260954         62.1628689
1.4575e+10        0.69585725        -18.6681445         2.54009939         84.3836846        0.126940297         61.3881846       0.0519560101         62.3031918
1.458e+10       0.695564998        -18.8204637         2.54000031         84.2197084        0.126998398         61.2485084       0.0520866723         62.4421223
1.4585e+10        0.69527232         -18.972714         2.53990111         84.0557672        0.127056524         61.1088672       0.0522180706         62.5796645
1.459e+10       0.694979214        -19.1248954          2.5398018         83.8918609        0.127114673         60.9692609       0.0523501937         62.7158226
1.4595e+10        0.69468568        -19.2770079         2.53970237         83.7279894        0.127172845         60.8296894       0.0524830305         62.8506013
1.46e+10       0.694391717        -19.4290514         2.53960282         83.5641526        0.127231042         60.6901526       0.0526165698         62.9840051
1.4605e+10       0.694097326        -19.5810258         2.53950316         83.4003505        0.127289263         60.5506505       0.0527508006         63.1160389
1.461e+10       0.693802505        -19.7329313         2.53940339         83.2365829        0.127347507         60.4111829       0.0528857119         63.2467077
1.4615e+10       0.693507254        -19.8847676         2.53930351         83.0728498        0.127405776         60.2717498       0.0530212926         63.3760166
1.462e+10       0.693211572        -20.0365348         2.53920352         82.9091511         0.12746407         60.1323511       0.0531575321         63.5039708
1.4625e+10       0.692915459        -20.1882329         2.53910343         82.7454868        0.127522388         59.9929868       0.0532944195         63.6305758
1.463e+10       0.692618915        -20.3398618         2.53900323         82.5818568         0.12758073         59.8536568        0.053431944         63.7558373
1.4635e+10       0.692321938        -20.4914215         2.53890293         82.4182609        0.127639097         59.7143609       0.0535700952         63.8797608
1.464e+10       0.692024528         -20.642912         2.53880253         82.2546991        0.127697489         59.5750991       0.0537088623         64.0023522
1.4645e+10       0.691726685        -20.7943331         2.53870204         82.0911714        0.127755906         59.4358714        0.053848235         64.1236174
1.465e+10       0.691428408         -20.945685         2.53860144         81.9276776        0.127814348         59.2966776       0.0539882028         64.2435626
1.4655e+10       0.691129696        -21.0969676         2.53850076         81.7642177        0.127872815         59.1575177       0.0541287554         64.3621939
1.466e+10        0.69083055        -21.2481808         2.53839998         81.6007916        0.127931307         59.0183916       0.0542698825         64.4795175
1.4665e+10       0.690530968        -21.3993246         2.53829912         81.4373992        0.127989825         58.8792992       0.0544115739         64.5955399
1.467e+10        0.69023095        -21.5503989         2.53819816         81.2740404        0.128048369         58.7402404       0.0545538197         64.7102676
1.4675e+10       0.689930495        -21.7014039         2.53809712         81.1107152        0.128106937         58.6012152       0.0546966096         64.8237071
1.468e+10       0.689629603        -21.8523393           2.537996         80.9474235        0.128165532         58.4622235       0.0548399339         64.9358652
1.4685e+10       0.689328273        -22.0032053         2.53789479         80.7841652        0.128224153         58.3232652       0.0549837825         65.0467485
1.469e+10       0.689026505        -22.1540017         2.53779351         80.6209401        0.128282799         58.1843401       0.0551281458         65.1563639
1.4695e+10       0.688724298        -22.3047285         2.53769215         80.4577484        0.128341472         58.0454484       0.0552730139         65.2647183
1.47e+10       0.688421652        -22.4553858         2.53759071         80.2945898        0.128400171         57.9065898       0.0554183774         65.3718188
1.4705e+10       0.688118566        -22.6059734         2.53748919         80.1314642        0.128458896         57.7677642       0.0555642265         65.4776723
1.471e+10        0.68781504        -22.7564914         2.53738761         79.9683717        0.128517647         57.6289717       0.0557105519          65.582286
1.4715e+10       0.687511072        -22.9069397         2.53728595         79.8053121        0.128576426         57.4902121       0.0558573441         65.6856671
1.472e+10       0.687206663        -23.0573184         2.53718423         79.6422853        0.128635231         57.3514853       0.0560045938         65.7878228
1.4725e+10       0.686901812        -23.2076273         2.53708244         79.4792913        0.128694062         57.2127913       0.0561522918         65.8887605
1.473e+10       0.686596518        -23.3578664         2.53698058         79.3163299        0.128752921         57.0741299       0.0563004289         65.9884874
1.4735e+10       0.686290781        -23.5080358         2.53687867         79.1534011        0.128811807         56.9355011        0.056448996         66.0870109
1.474e+10       0.685984601        -23.6581354         2.53677669         78.9905049         0.12887072         56.7969049       0.0565979841         66.1843386
1.4745e+10       0.685677976        -23.8081652         2.53667466          78.827641         0.12892966          56.658341       0.0567473843         66.2804779
1.475e+10       0.685370906        -23.9581252         2.53657256         78.6648095        0.128988627         56.5198095       0.0568971877         66.3754362
1.4755e+10       0.685063391        -24.1080152         2.53647042         78.5020103        0.129047622         56.3813103       0.0570473856         66.4692212
1.476e+10        0.68475543        -24.2578354         2.53636822         78.3392433        0.129106645         56.2428433       0.0571979692         66.5618405
1.4765e+10       0.684447023        -24.4075857         2.53626597         78.1765083        0.129165696         56.1044083       0.0573489299         66.6533016
1.477e+10       0.684138169         -24.557266         2.53616367         78.0138053        0.129224774         55.9660053       0.0575002592         66.7436122
1.4775e+10       0.683828867        -24.7068764         2.53606133         77.8511343        0.129283881         55.8276343       0.0576519486           66.83278
1.478e+10       0.683519118        -24.8564168         2.53595894         77.6884951        0.129343015         55.6892951       0.0578039897         66.9208126
1.4785e+10       0.683208919        -25.0058871         2.53585651         77.5258877        0.129402178         55.5509877       0.0579563743         67.0077178
1.479e+10       0.682898272        -25.1552875         2.53575403          77.363312        0.129461369          55.412712        0.058109094         67.0935032
1.4795e+10       0.682587175        -25.3046178         2.53565152         77.2007678        0.129520589         55.2744678       0.0582621407         67.1781766
1.48e+10       0.682275628        -25.4538781         2.53554897         77.0382552        0.129579837         55.1362552       0.0584155064         67.2617457
1.4805e+10        0.68196363        -25.6030682         2.53544639         76.8757739        0.129639114         54.9980739        0.058569183         67.3442184
1.481e+10       0.681651181        -25.7521883         2.53534377          76.713324         0.12969842          54.859924       0.0587231625         67.4256023
1.4815e+10        0.68133828        -25.9012383         2.53524112         76.5509054        0.129757755         54.7218054       0.0588774372         67.5059051
1.482e+10       0.681024927         -26.050218         2.53513845         76.3885179        0.129817119         54.5837179       0.0590319993         67.5851348
1.4825e+10       0.680711121        -26.1991277         2.53503574         76.2261615        0.129876512         54.4456615       0.0591868409          67.663299
1.483e+10       0.680396862        -26.3479671         2.53493301         76.0638361        0.129935935         54.3076361       0.0593419545         67.7404054
1.4835e+10       0.680082149        -26.4967364         2.53483026         75.9015416        0.129995387         54.1696416       0.0594973326         67.8164619
1.484e+10       0.679766981        -26.6454354         2.53472748         75.7392779        0.130054869         54.0316779       0.0596529676         67.8914762
1.4845e+10       0.679451358        -26.7940642         2.53462469          75.577045         0.13011438          53.893745       0.0598088521         67.9654561
1.485e+10        0.67913528        -26.9426228         2.53452187         75.4148427        0.130173921         53.7558427       0.0599649787         68.0384092
1.4855e+10       0.678818746         -27.091111         2.53441905         75.2526709        0.130233493         53.6179709       0.0601213403         68.1103433
1.486e+10       0.678501755         -27.239529          2.5343162         75.0905296        0.130293094         53.4801296       0.0602779295         68.1812661
1.4865e+10       0.678184307        -27.3878767         2.53421335         74.9284188        0.130352725         53.3423188       0.0604347392         68.2511853
1.487e+10       0.677866402        -27.5361541         2.53411048         74.7663382        0.130412387         53.2045382       0.0605917625         68.3201086
1.4875e+10       0.677548038        -27.6843611         2.53400761         74.6042878        0.130472079         53.0667878       0.0607489922         68.3880437
1.488e+10       0.677229215        -27.8324978         2.53390473         74.4422675        0.130531802         52.9290675       0.0609064215         68.4549981
1.4885e+10       0.676909934        -27.9805641         2.53380185         74.2802773        0.130591556         52.7913773       0.0610640435         68.5209796
1.489e+10       0.676590192        -28.1285601         2.53369896          74.118317         0.13065134          52.653717       0.0612218514         68.5859957
1.4895e+10       0.676269991        -28.2764856         2.53359608         73.9563865        0.130711155         52.5160865       0.0613798385          68.650054
1.49e+10       0.675949328        -28.4243408         2.53349319         73.7944858        0.130771002         52.3784858       0.0615379981         68.7131621
1.4905e+10       0.675628204        -28.5721255         2.53339031         73.6326148        0.130830879         52.2409148       0.0616963237         68.7753274
1.491e+10       0.675306618        -28.7198398         2.53328744         73.4707734        0.130890788         52.1033734       0.0618548088         68.8365576
1.4915e+10        0.67498457        -28.8674836         2.53318457         73.3089615        0.130950729         51.9658615       0.0620134468         68.8968601
1.492e+10       0.674662059         -29.015057          2.5330817         73.1471789          0.1310107         51.8283789       0.0621722315         68.9562423
1.4925e+10       0.674339085        -29.1625599         2.53297885         72.9854257        0.131070704         51.6909257       0.0623311564         69.0147117
1.493e+10       0.674015646        -29.3099924         2.53287602         72.8237017        0.131130739         51.5535017       0.0624902153         69.0722757
1.4935e+10       0.673691743        -29.4573543         2.53277319         72.6620069        0.131190807         51.4161069       0.0626494021         69.1289416
1.494e+10       0.673367375        -29.6046457         2.53267039         72.5003411        0.131250906         51.2787411       0.0628087106         69.1847169
1.4945e+10       0.673042542        -29.7518666          2.5325676         72.3387042        0.131311038         51.1414042       0.0629681347         69.2396086
1.495e+10       0.672717242         -29.899017         2.53246483         72.1770962        0.131371202         51.0040962       0.0631276685         69.2936243
1.4955e+10       0.672391476        -30.0460969         2.53236208          72.015517        0.131431398          50.866817        0.063287306          69.346771
1.496e+10       0.672065242        -30.1931062         2.53225936         71.8539664        0.131491627         50.7295664       0.0634470413          69.399056
1.4965e+10       0.671738541        -30.3400449         2.53215666         71.6924444        0.131551888         50.5923444       0.0636068686         69.4504865
1.497e+10       0.671411372        -30.4869131         2.53205399         71.5309509        0.131612183         50.4551509       0.0637667821         69.5010695
1.4975e+10       0.671083734        -30.6337107         2.53195135         71.3694858         0.13167251         50.3179858       0.0639267763         69.5508123
1.498e+10       0.670755627        -30.7804377         2.53184874          71.208049         0.13173287          50.180849       0.0640868453         69.5997218
1.4985e+10        0.67042705        -30.9270941         2.53174616         71.0466405        0.131793264         50.0437405       0.0642469836          69.647805
1.499e+10       0.670098003          -31.07368         2.53164362           70.88526         0.13185369           49.90666       0.0644071858          69.695069
1.4995e+10       0.669768485        -31.2201952         2.53154111         70.7239076        0.131914151         49.7696076       0.0645674464         69.7415207
1.5e+10       0.669438496        -31.3666398         2.53143865         70.5625831        0.131974644         49.6325831       0.0647277599          69.787167
1.5005e+10       0.669142971        -31.5129367         2.53133851         70.4026623         0.13202966         49.4971623       0.0648884168         69.8801187
1.501e+10       0.668847017        -31.6591663         2.53123841         70.2427709        0.132084705         49.3617709       0.0650496016         69.9720172
1.5015e+10       0.668550635        -31.8053283         2.53113835         70.0829089         0.13213978         49.2264089        0.065211306         70.0628679
1.502e+10       0.668253823        -31.9514229         2.53103834         69.9230762        0.132194885         49.0910762       0.0653735219          70.152676
1.5025e+10       0.667956581        -32.0974501         2.53093838         69.7632727         0.13225002         48.9557727       0.0655362411         70.2414468
1.503e+10       0.667658909        -32.2434098         2.53083846         69.6034983        0.132305186         48.8204983       0.0656994554         70.3291858
1.5035e+10       0.667360806        -32.3893022          2.5307386         69.4437529        0.132360382         48.6852529       0.0658631569         70.4158983
1.504e+10       0.667062271        -32.5351272         2.53063879         69.2840364        0.132415608         48.5500364       0.0660273375         70.5015899
1.5045e+10       0.666763305        -32.6808848         2.53053903         69.1243488        0.132470866         48.4148488       0.0661919894          70.586266
1.505e+10       0.666463906        -32.8265751         2.53043933           68.96469        0.132526154           48.27969       0.0663571047         70.6699322
1.5055e+10       0.666164075         -32.972198         2.53033969         68.8050598        0.132581473         48.1445598       0.0665226756         70.7525941
1.506e+10        0.66586381        -33.1177536         2.53024012         68.6454583        0.132636823         48.0094583       0.0666886944         70.8342571
1.5065e+10       0.665563111         -33.263242          2.5301406         68.4858852        0.132692204         47.8743852       0.0668551535          70.914927
1.507e+10       0.665261977         -33.408663         2.53004115         68.3263405        0.132747617         47.7393405       0.0670220452         70.9946094
1.5075e+10       0.664960409        -33.5540168         2.52994176         68.1668242        0.132803061         47.6043242       0.0671893619         71.0733099
1.508e+10       0.664658405        -33.6993033         2.52984245          68.007336        0.132858537          47.469336       0.0673570963         71.1510342
1.5085e+10       0.664355966        -33.8445227          2.5297432          67.847876        0.132914044          47.334376       0.0675252409          71.227788
1.509e+10        0.66405309        -33.9896748         2.52964403         67.6884441        0.132969583         47.1994441       0.0676937884          71.303577
1.5095e+10       0.663749777        -34.1347598         2.52954493         67.5290401        0.133025154         47.0645401       0.0678627314          71.378407
1.51e+10       0.663446027        -34.2797775         2.52944591          67.369664        0.133080758          46.929664       0.0680320628         71.4522836
1.5105e+10       0.663141838        -34.4247282         2.52934696         67.2103157        0.133136393         46.7948157       0.0682017753         71.5252127
1.511e+10       0.662837212        -34.5696118          2.5292481          67.050995        0.133192061          46.659995       0.0683718619         71.5971999
1.5115e+10       0.662532146        -34.7144282         2.52914932          66.891702        0.133247761          46.525202       0.0685423154         71.6682511
1.512e+10       0.662226641        -34.8591776         2.52905062         66.7324365        0.133303494         46.3904365        0.068713129         71.7383721
1.5125e+10       0.661920696        -35.0038599           2.528952         66.5731984         0.13335926         46.2556984       0.0688842957         71.8075686
1.513e+10       0.661614311        -35.1484753         2.52885348         66.4139876        0.133415059         46.1209876       0.0690558086         71.8758464
1.5135e+10       0.661307484        -35.2930236         2.52875504          66.254804         0.13347089          45.986304       0.0692276609         71.9432112
1.514e+10       0.661000217        -35.4375049          2.5286567         66.0956476        0.133526755         45.8516476       0.0693998459          72.009669
1.5145e+10       0.660692507        -35.5819193         2.52855845         65.9365182        0.133582653         45.7170182       0.0695723568         72.0752254
1.515e+10       0.660384355        -35.7262668         2.52846029         65.7774158        0.133638585         45.5824158       0.0697451871         72.1398863
1.5155e+10        0.66007576        -35.8705474         2.52836223         65.6183403         0.13369455         45.4478403       0.0699183301         72.2036574
1.516e+10       0.659766722        -36.0147611         2.52826427         65.4592915        0.133750548         45.3132915       0.0700917794         72.2665445
1.5165e+10        0.65945724         -36.158908         2.52816642         65.3002694         0.13380658         45.1787694       0.0702655285         72.3285534
1.517e+10       0.659147313         -36.302988         2.52806866         65.1412739        0.133862647         45.0442739        0.070439571         72.3896898
1.5175e+10       0.658836941        -36.4470013         2.52797101         64.9823049        0.133918747         44.9098049       0.0706139006         72.4499596
1.518e+10       0.658526125        -36.5909478         2.52787346         64.8233623        0.133974882         44.7753623       0.0707885109         72.5093684
1.5185e+10       0.658214862        -36.7348275         2.52777603         64.6644461         0.13403105         44.6409461       0.0709633958         72.5679221
1.519e+10       0.657903153        -36.8786406          2.5276787          64.505556        0.134087254          44.506556        0.071138549         72.6256263
1.5195e+10       0.657590997         -37.022387         2.52758148          64.346692        0.134143491          44.372192       0.0713139645         72.6824867
1.52e+10       0.657278393        -37.1660668         2.52748438         64.1878541        0.134199764         44.2378541       0.0714896361         72.7385092
1.5205e+10       0.656965342        -37.3096799          2.5273874         64.0290421        0.134256071         44.1035421        0.071665558         72.7936993
1.521e+10       0.656651843        -37.4532264         2.52729053         63.8702559        0.134312413         43.9692559       0.0718417241         72.8480627
1.5215e+10       0.656337894        -37.5967064         2.52719378         63.7114955        0.134368791         43.8349955       0.0720181285         72.9016052
1.522e+10       0.656023497        -37.7401199         2.52709716         63.5527607        0.134425203         43.7007607       0.0721947655         72.9543323
1.5225e+10       0.655708649        -37.8834669         2.52700065         63.3940515        0.134481651         43.5665515       0.0723716291         73.0062497
1.523e+10       0.655393351        -38.0267474         2.52690427         63.2353677        0.134538134         43.4323677       0.0725487137         73.0573631
1.5235e+10       0.655077603        -38.1699615         2.52680802         63.0767093        0.134594653         43.2982093       0.0727260136          73.107678
1.524e+10       0.654761403        -38.3131093          2.5267119         62.9180762        0.134651208         43.1640762       0.0729035232         73.1571999
1.5245e+10       0.654444751        -38.4561906          2.5266159         62.7594682        0.134707798         43.0299682       0.0730812369         73.2059346
1.525e+10       0.654127647        -38.5992057         2.52652004         62.6008853        0.134764425         42.8958853       0.0732591492         73.2538874
1.5255e+10        0.65381009        -38.7421544         2.52642431         62.4423274        0.134821087         42.7618274       0.0734372545          73.301064
1.526e+10        0.65349208        -38.8850369         2.52632872         62.2837943        0.134877786         42.6277943       0.0736155476         73.3474698
1.5265e+10       0.653173617        -39.0278532         2.52623326         62.1252861        0.134934521         42.4937861       0.0737940229         73.3931103
1.527e+10       0.652854699        -39.1706033         2.52613795         61.9668025        0.134991293         42.3598025       0.0739726753          73.437991
1.5275e+10       0.652535326        -39.3132872         2.52604277         61.8083435        0.135048101         42.2258435       0.0741514994         73.4821173
1.528e+10       0.652215498        -39.4559051         2.52594774          61.649909        0.135104946          42.091909         0.07433049         73.5254945
1.5285e+10       0.651895215        -39.5984568         2.52585286         61.4914989        0.135161828         41.9579989       0.0745096419         73.5681282
1.529e+10       0.651574475        -39.7409425         2.52575811         61.3331131        0.135218747         41.8241131       0.0746889501         73.6100236
1.5295e+10       0.651253279        -39.8833623         2.52566352         61.1747515        0.135275703         41.6902515       0.0748684094         73.6511862
1.53e+10       0.650931625        -40.0257161         2.52556908          61.016414        0.135332696          41.556414       0.0750480149         73.6916211
1.5305e+10       0.650609514        -40.1680039         2.52547479         60.8581004        0.135389727         41.4226004       0.0752277615         73.7313337
1.531e+10       0.650286945        -40.3102259         2.52538065         60.6998108        0.135446796         41.2888108       0.0754076444         73.7703293
1.5315e+10       0.649963917         -40.452382         2.52528667          60.541545        0.135503901          41.155045       0.0755876586         73.8086131
1.532e+10        0.64964043        -40.5944724         2.52519284         60.3833029        0.135561045         41.0213029       0.0757677994         73.8461902
1.5325e+10       0.649316484        -40.7364969         2.52509917         60.2250844        0.135618227         40.8875844       0.0759480619          73.883066
1.533e+10       0.648992077        -40.8784558         2.52500566         60.0668894        0.135675447         40.7538894       0.0761284414         73.9192455
1.5335e+10       0.648667211         -41.020349         2.52491232         59.9087178        0.135732704         40.6202178       0.0763089333         73.9547338
1.534e+10       0.648341883        -41.1621765         2.52481914         59.7505695        0.135790001         40.4865695       0.0764895328         73.9895362
1.5345e+10       0.648016093        -41.3039385         2.52472612         59.5924444        0.135847335         40.3529444       0.0766702354         74.0236575
1.535e+10       0.647689842        -41.4456349         2.52463327         59.4343424        0.135904708         40.2193424       0.0768510365         74.0571029
1.5355e+10       0.647363128        -41.5872657         2.52454059         59.2762634         0.13596212         40.0857634       0.0770319317         74.0898775
1.536e+10       0.647035951        -41.7288312         2.52444808         59.1182073        0.136019571         39.9522073       0.0772129163          74.121986
1.5365e+10       0.646708311        -41.8703312         2.52435574         58.9601741         0.13607706         39.8186741       0.0773939861         74.1534337
1.537e+10       0.646380207        -42.0117658         2.52426358         58.8021635        0.136134589         39.6851635       0.0775751367         74.1842253
1.5375e+10       0.646051639        -42.1531351         2.52417159         58.6441755        0.136192157         39.5516755       0.0777563636         74.2143657
1.538e+10       0.645722606        -42.2944391         2.52407978           58.48621        0.136249764           39.41821       0.0779376627         74.2438599
1.5385e+10       0.645393108        -42.4356779         2.52398814         58.3282669        0.136307411         39.2847669       0.0781190296         74.2727126
1.539e+10       0.645063144        -42.5768515         2.52389669         58.1703461        0.136365097         39.1513461       0.0783004601         74.3009287
1.5395e+10       0.644732713        -42.7179599         2.52380542         58.0124475        0.136422823         39.0179475       0.0784819502          74.328513
1.54e+10       0.644401816        -42.8590032         2.52371433          57.854571        0.136480589          38.884571       0.0786634956         74.3554701
1.5405e+10       0.644070452        -42.9999815         2.52362343         57.6967165        0.136538394         38.7512165       0.0788450923         74.3818049
1.541e+10        0.64373862        -43.1408948         2.52353272         57.5388838         0.13659624         38.6178838       0.0790267362          74.407522
1.5415e+10        0.64340632        -43.2817431         2.52344219          57.381073        0.136654126          38.484573       0.0792084233          74.432626
1.542e+10       0.643073551        -43.4225265         2.52335186         57.2232838        0.136712052         38.3512838       0.0793901497         74.4571217
1.5425e+10       0.642740314        -43.5632451         2.52326171         57.0655162        0.136770019         38.2180162       0.0795719114         74.4810135
1.543e+10       0.642406606        -43.7038988         2.52317176           56.90777        0.136828027           38.08477       0.0797537045          74.504306
1.5435e+10       0.642072429        -43.8444878         2.52308201         56.7500452        0.136886075         37.9515452       0.0799355253         74.5270039
1.544e+10       0.641737781        -43.9850121         2.52299245         56.5923417        0.136944164         37.8183417       0.0801173698         74.5491115
1.5445e+10       0.641402663        -44.1254717         2.52290309         56.4346594        0.137002294         37.6851594       0.0802992344         74.5706334
1.545e+10       0.641067073        -44.2658667         2.52281393         56.2769981        0.137060465         37.5519981       0.0804811152          74.591574
1.5455e+10       0.640731011        -44.4061972         2.52272497         56.1193577        0.137118677         37.4188577       0.0806630087         74.6119377
1.546e+10       0.640394476        -44.5464631         2.52263621         55.9617382         0.13717693         37.2857382       0.0808449111          74.631729
1.5465e+10       0.640057469        -44.6866646         2.52254766         55.8041394        0.137235225         37.1526394       0.0810268188          74.650952
1.547e+10       0.639719989        -44.8268017         2.52245932         55.6465613        0.137293562         37.0195613       0.0812087282         74.6696112
1.5475e+10       0.639382035        -44.9668745         2.52237118         55.4890037         0.13735194         36.8865037       0.0813906358         74.6877109
1.548e+10       0.639043606         -45.106883         2.52228325         55.3314665        0.137410361         36.7534665       0.0815725381         74.7052553
1.5485e+10       0.638704703        -45.2468272         2.52219553         55.1739496        0.137468823         36.6204496       0.0817544315         74.7222486
1.549e+10       0.638365325        -45.3867073         2.52210803          55.016453        0.137527327          36.487453       0.0819363127         74.7386951
1.5495e+10       0.638025471        -45.5265233         2.52202074         54.8589764        0.137585873         36.3544764       0.0821181783         74.7545988
1.55e+10       0.637685142        -45.6662751         2.52193366         54.7015199        0.137644462         36.2215199       0.0823000248          74.769964
1.5505e+10       0.637344335         -45.805963          2.5218468         54.5440832        0.137703093         36.0885832        0.082481849         74.7847947
1.551e+10       0.637003052        -45.9455869         2.52176016         54.3866664        0.137761767         35.9556664       0.0826636475          74.799095
1.5515e+10       0.636661291        -46.0851469         2.52167373         54.2292692        0.137820484         35.8227692       0.0828454171          74.812869
1.552e+10       0.636319053        -46.2246431         2.52158753         54.0718916        0.137879243         35.6898916       0.0830271545         74.8261206
1.5525e+10       0.635976336        -46.3640755         2.52150155         53.9145334        0.137938046         35.5570334       0.0832088565         74.8388538
1.553e+10        0.63563314        -46.5034441          2.5214158         53.7571947        0.137996891         35.4241947         0.08339052         74.8510727
1.5535e+10       0.635289465        -46.6427491         2.52133027         53.5998751         0.13805578         35.2913751       0.0835721418          74.862781
1.554e+10        0.63494531        -46.7819905         2.52124497         53.4425747        0.138114712         35.1585747       0.0837537188         74.8739827
1.5545e+10       0.634600675        -46.9211683          2.5211599         53.2852934        0.138173687         35.0257934       0.0839352479         74.8846817
1.555e+10        0.63425556        -47.0602827         2.52107505         53.1280309        0.138232706         34.8930309       0.0841167261         74.8948818
1.5555e+10       0.633909963        -47.1993336         2.52099044         52.9707873        0.138291768         34.7602873       0.0842981504         74.9045868
1.556e+10       0.633563885        -47.3383212         2.52090606         52.8135624        0.138350875         34.6275624       0.0844795178         74.9138004
1.5565e+10       0.633217325        -47.4772454         2.52082192         52.6563561        0.138410025         34.4948561       0.0846608254         74.9225264
1.557e+10       0.632870283        -47.6161064         2.52073801         52.4991683         0.13846922         34.3621683       0.0848420701         74.9307686
1.5575e+10       0.632522757        -47.7549043         2.52065434         52.3419989        0.138528458         34.2294989       0.0850232493         74.9385305
1.558e+10       0.632174749         -47.893639          2.5205709         52.1848477        0.138587741         34.0968477       0.0852043599         74.9458158
1.5585e+10       0.631826256        -48.0323106         2.52048771         52.0277147        0.138647069         33.9642147       0.0853853992         74.9526282
1.559e+10        0.63147728        -48.1709193         2.52040475         51.8705998         0.13870644         33.8315998       0.0855663643         74.9589713
1.5595e+10       0.631127818         -48.309465         2.52032204         51.7135028        0.138765857         33.6990028       0.0857472525         74.9648485
1.56e+10       0.630777872        -48.4479479         2.52023958         51.5564236        0.138825318         33.5664236        0.085928061         74.9702636
1.5605e+10        0.63042744         -48.586368         2.52015736         51.3993622        0.138884824         33.4338622       0.0861087872         74.9752198
1.561e+10       0.630076522        -48.7247253         2.52007538         51.2423183        0.138944375         33.3013183       0.0862894283         74.9797208
1.5615e+10       0.629725117          -48.86302         2.51999365          51.085292        0.139003972          33.168792       0.0864699818           74.98377
1.562e+10       0.629373226        -49.0012521         2.51991218         50.9282831        0.139063613         33.0362831       0.0866504448         74.9873708
1.5625e+10       0.629020847        -49.1394216         2.51983095         50.7712915          0.1391233         32.9037915       0.0868308149         74.9905265
1.563e+10       0.628667981        -49.2775287         2.51974998          50.614317        0.139183033          32.771317       0.0870110895         74.9932406
1.5635e+10       0.628314626        -49.4155734         2.51966925         50.4573596        0.139242811         32.6388596       0.0871912661         74.9955164
1.564e+10       0.627960783        -49.5535557         2.51958879         50.3004191        0.139302634         32.5064191        0.087371342         74.9973571
1.5645e+10        0.62760645        -49.6914758         2.51950857         50.1434955        0.139362504         32.3739955       0.0875513149         74.9987662
1.565e+10       0.627251628        -49.8293337         2.51942862         49.9865886        0.139422419         32.2415886       0.0877311822         74.9997467
1.5655e+10       0.626896317        -49.9671294         2.51934892         49.8296983        0.139482381         32.1091983       0.0879109415          75.000302
1.566e+10       0.626540514        -50.1048631         2.51926949         49.6728245        0.139542389         31.9768245       0.0880905904         75.0004353
1.5665e+10       0.626184221        -50.2425349         2.51919031          49.515967        0.139602443          31.844467       0.0882701265         75.0001496
1.567e+10       0.625827437        -50.3801447          2.5191114         49.3591259        0.139662543         31.7121259       0.0884495474         74.9994482
1.5675e+10       0.625470161        -50.5176926         2.51903275         49.2023009         0.13972269         31.5798009       0.0886288509         74.9983341
1.568e+10       0.625112392        -50.6551788         2.51895436          49.045492        0.139782884          31.447492       0.0888080345         74.9968105
1.5685e+10       0.624754132        -50.7926033         2.51887624          48.888699        0.139843125          31.315199       0.0889870959         74.9948803
1.569e+10       0.624395378        -50.9299662         2.51879839         48.7319219        0.139903412         31.1829219        0.089166033         74.9925468
1.5695e+10       0.624036131        -51.0672675          2.5187208         48.5751604        0.139963746         31.0506604       0.0893448435         74.9898127
1.57e+10        0.62367639        -51.2045073         2.51864349         48.4184146        0.140024128         30.9184146       0.0895235251         74.9866812
1.5705e+10       0.623316154        -51.3416857         2.51856644         48.2616842        0.140084556         30.7861842       0.0897020756         74.9831552
1.571e+10       0.622955424        -51.4788028         2.51848967         48.1049692        0.140145032         30.6539692        0.089880493         74.9792376
1.5715e+10       0.622594199        -51.6158586         2.51841317         47.9482694        0.140205556         30.5217694        0.090058775         74.9749312
1.572e+10       0.622232478        -51.7528533         2.51833695         47.7915848        0.140266127         30.3895848       0.0902369194         74.9702391
1.5725e+10       0.621870262        -51.8897868           2.518261         47.6349152        0.140326745         30.2574152       0.0904149243          74.965164
1.573e+10       0.621507548        -52.0266593         2.51818532         47.4782605        0.140387412         30.1252605       0.0905927875         74.9597088
1.5735e+10       0.621144338        -52.1634708         2.51810992         47.3216207        0.140448126         29.9931207        0.090770507         74.9538763
1.574e+10       0.620780631        -52.3002215         2.51803481         47.1649955        0.140508889         29.8609955       0.0909480806         74.9476692
1.5745e+10       0.620416426        -52.4369113         2.51795997         47.0083848        0.140569699         29.7288848       0.0911255065         74.9410903
1.575e+10       0.620051723        -52.5735405         2.51788541         46.8517887        0.140630558         29.5967887       0.0913027826         74.9341423
1.5755e+10       0.619686522         -52.710109         2.51781114         46.6952068        0.140691465         29.4647068        0.091479907         74.9268279
1.576e+10       0.619320821        -52.8466169         2.51773714         46.5386392         0.14075242         29.3326392       0.0916568776         74.9191498
1.5765e+10       0.618954622        -52.9830643         2.51766344         46.3820857        0.140813424         29.2005857       0.0918336926         74.9111107
1.577e+10       0.618587922        -53.1194514         2.51759001         46.2255461        0.140874477         29.0685461       0.0920103501         74.9027131
1.5775e+10       0.618220723        -53.2557781         2.51751688         46.0690205        0.140935579         28.9365205       0.0921868481         74.8939597
1.578e+10       0.617853022        -53.3920445         2.51744403         45.9125086        0.140996729         28.8045086       0.0923631848         74.8848531
1.5785e+10       0.617484821        -53.5282508         2.51737147         45.7560103        0.141057929         28.6725103       0.0925393583         74.8753958
1.579e+10       0.617116118         -53.664397          2.5172992         45.5995255        0.141119177         28.5405255       0.0927153669         74.8655903
1.5795e+10       0.616746914        -53.8004832         2.51722722         45.4430542        0.141180475         28.4085542       0.0928912087         74.8554392
1.58e+10       0.616377207        -53.9365094         2.51715553         45.2865962        0.141241822         28.2765962       0.0930668819         74.8449449
1.5805e+10       0.616006998        -54.0724759         2.51708413         45.1301513        0.141303219         28.1446513       0.0932423847           74.83411
1.581e+10       0.615636285        -54.2083826         2.51701303         44.9737195        0.141364665         28.0127195       0.0934177155         74.8229368
1.5815e+10        0.61526507        -54.3442296         2.51694222         44.8173006         0.14142616         27.8808006       0.0935928724         74.8114277
1.582e+10        0.61489335         -54.480017         2.51687171         44.6608945        0.141487706         27.7488945       0.0937678538         74.7995852
1.5825e+10       0.614521126        -54.6157449         2.51680149         44.5045011        0.141549301         27.6170011        0.093942658         74.7874116
1.583e+10       0.614148397        -54.7514134         2.51673158         44.3481204        0.141610946         27.4851204       0.0941172832         74.7749093
1.5835e+10       0.613775164        -54.8870226         2.51666196          44.191752        0.141672642          27.353252       0.0942917279         74.7620806
1.584e+10       0.613401424        -55.0225725         2.51659264         44.0353961        0.141734387         27.2213961       0.0944659904         74.7489278
1.5845e+10       0.613027179        -55.1580632         2.51652361         43.8790523        0.141796183         27.0895523       0.0946400691         74.7354532
1.585e+10       0.612652428        -55.2934949          2.5164549         43.7227207        0.141858029         26.9577207       0.0948139623         74.7216591
1.5855e+10        0.61227717        -55.4288676         2.51638648         43.5664011        0.141919926         26.8259011       0.0949876686         74.7075476
1.586e+10       0.611901405        -55.5641814         2.51631836         43.4100933        0.141981873         26.6940933       0.0951611862         74.6931211
1.5865e+10       0.611525133        -55.6994364         2.51625055         43.2537973        0.142043871         26.5622973       0.0953345138         74.6783816
1.587e+10       0.611148352        -55.8346327         2.51618305         43.0975129         0.14210592         26.4305129       0.0955076497         74.6633314
1.5875e+10       0.610771064        -55.9697703         2.51611585         42.9412401         0.14216802         26.2987401       0.0956805924         74.6479727
1.588e+10       0.610393267        -56.1048494         2.51604896         42.7849786         0.14223017         26.1669786       0.0958533404         74.6323075
1.5885e+10        0.61001496        -56.2398701         2.51598237         42.6287285        0.142292372         26.0352285       0.0960258923          74.616338
1.589e+10       0.609636145        -56.3748323         2.51591609         42.4724894        0.142354625         25.9034894       0.0961982466         74.6000662
1.5895e+10       0.609256819        -56.5097364         2.51585013         42.3162615        0.142416929         25.7717615       0.0963704017         74.5834943
1.59e+10       0.608876984        -56.6445822         2.51578447         42.1600444        0.142479285         25.6400444       0.0965423564         74.5666243
1.5905e+10       0.608496638        -56.7793699         2.51571912         42.0038381        0.142541692         25.5083381       0.0967141092         74.5494581
1.591e+10        0.60811578        -56.9140997         2.51565408         41.8476425         0.14260415         25.3766425       0.0968856586          74.531998
1.5915e+10       0.607734412        -57.0487716         2.51558936         41.6914575        0.142666661         25.2449575       0.0970570033         74.5142457
1.592e+10       0.607352532        -57.1833856         2.51552495         41.5352829        0.142729223         25.1132829        0.097228142         74.4962033
1.5925e+10       0.606970139         -57.317942         2.51546085         41.3791186        0.142791837         24.9816186       0.0973990732         74.4778727
1.593e+10       0.606587234        -57.4524407         2.51539707         41.2229645        0.142854503         24.8499645       0.0975697956          74.459256
1.5935e+10       0.606203817        -57.5868819         2.51533361         41.0668205        0.142917222         24.7183205       0.0977403079         74.4403548
1.594e+10       0.605819886        -57.7212657         2.51527046         40.9106865        0.142979992         24.5866865       0.0979106088         74.4211713
1.5945e+10       0.605435441        -57.8555921         2.51520762         40.7545622        0.143042815         24.4550622       0.0980806969         74.4017072
1.595e+10       0.605050482        -57.9898613         2.51514511         40.5984477         0.14310569         24.3234477       0.0982505711         74.3819644
1.5955e+10       0.604665009        -58.1240734         2.51508291         40.4423428        0.143168617         24.1918428       0.0984202301         74.3619447
1.596e+10       0.604279022        -58.2582284         2.51502103         40.2862473        0.143231597         24.0602473       0.0985896725           74.34165
1.5965e+10       0.603892519        -58.3923265         2.51495948         40.1301612         0.14329463         23.9286612       0.0987588971          74.321082
1.597e+10         0.6035055        -58.5263677         2.51489824         39.9740843        0.143357715         23.7970843       0.0989279028         74.3002426
1.5975e+10       0.603117966        -58.6603522         2.51483732         39.8180165        0.143420854         23.6655165       0.0990966883         74.2791334
1.598e+10       0.602729916        -58.7942801         2.51477673         39.6619577        0.143484045         23.5339577       0.0992652524         74.2577562
1.5985e+10       0.602341348        -58.9281514         2.51471646         39.5059077        0.143547289         23.4024077       0.0994335939         74.2361128
1.599e+10       0.601952264        -59.0619662         2.51465651         39.3498665        0.143610587         23.2708665       0.0996017117         74.2142049
1.5995e+10       0.601562663        -59.1957247         2.51459688         39.1938338        0.143673937         23.1393338       0.0997696046          74.192034
1.6e+10       0.601172544         -59.329427         2.51453758         39.0378097        0.143737341         23.0078097       0.0999372714          74.169602
1.6005e+10       0.600817244        -59.4630743         2.51449633         38.8832238        0.143807749         22.8774738         0.10010544         74.1521226
1.601e+10       0.600461469        -59.5966703         2.51445548         38.7286486        0.143878216         22.7471486         0.10027343         74.1343659
1.6015e+10       0.600105219        -59.7302148         2.51441505         38.5740839        0.143948743         22.6168339        0.100441241         74.1163338
1.602e+10       0.599748492        -59.8637082         2.51437502         38.4195295         0.14401933         22.4865295        0.100608871         74.0980277
1.6025e+10       0.599391289        -59.9971506          2.5143354         38.2649854        0.144089976         22.3562354         0.10077632         74.0794495
1.603e+10       0.599033609         -60.130542          2.5142962         38.1104514        0.144160683         22.2259514        0.100943586         74.0606006
1.6035e+10       0.598675453        -60.2638826         2.51425741         37.9559274         0.14423145         22.0956774        0.101110667         74.0414828
1.604e+10       0.598316819        -60.3971725         2.51421904         37.8014133        0.144302277         21.9654133        0.101277562         74.0220974
1.6045e+10       0.597957707        -60.5304119         2.51418107         37.6469089        0.144373164         21.8351589        0.101444271         74.0024462
1.605e+10       0.597598116        -60.6636008         2.51414353         37.4924142        0.144444113         21.7049142        0.101610791         73.9825307
1.6055e+10       0.597238048        -60.7967395          2.5141064          37.337929        0.144515121          21.574679        0.101777123         73.9623524
1.606e+10       0.596877501         -60.929828         2.51406969         37.1834531        0.144586191         21.4444531        0.101943263         73.9419128
1.6065e+10       0.596516474        -61.0628665          2.5140334         37.0289866        0.144657321         21.3142366        0.102109212         73.9212135
1.607e+10       0.596154968        -61.1958551         2.51399753         36.8745291        0.144728513         21.1840291        0.102274968         73.9002559
1.6075e+10       0.595792983        -61.3287939         2.51396208         36.7200807        0.144799765         21.0538307         0.10244053         73.8790414
1.608e+10       0.595430517        -61.4616831         2.51392704         36.5656412        0.144871079         20.9236412        0.102605897         73.8575717
1.6085e+10        0.59506757        -61.5945228         2.51389244         36.4112104        0.144942455         20.7934604        0.102771067          73.835848
1.609e+10       0.594704143        -61.7273132         2.51385825         36.2567883        0.145013891         20.6632883         0.10293604         73.8138718
1.6095e+10       0.594340235        -61.8600544         2.51382449         36.1023747         0.14508539         20.5331247        0.103100814         73.7916446
1.61e+10       0.593975845        -61.9927465         2.51379115         35.9479695         0.14515695         20.4029695        0.103265389         73.7691677
1.6105e+10       0.593610973        -62.1253896         2.51375824         35.7935725        0.145228571         20.2728225        0.103429762         73.7464426
1.611e+10       0.593245619        -62.2579839         2.51372576         35.6391837        0.145300255         20.1426837        0.103593934         73.7234705
1.6115e+10       0.592879783        -62.3905296          2.5136937         35.4848029        0.145372001         20.0125529        0.103757903         73.7002529
1.612e+10       0.592513464        -62.5230268         2.51366207           35.33043        0.145443809           19.88243        0.103921667         73.6767911
1.6125e+10       0.592146662        -62.6554755         2.51363087         35.1760648        0.145515679         19.7523148        0.104085227         73.6530864
1.613e+10       0.591779376         -62.787876          2.5136001         35.0217073        0.145587612         19.6222073         0.10424858         73.6291401
1.6135e+10       0.591411606        -62.9202285         2.51356976         34.8673573        0.145659607         19.4921073        0.104411727         73.6049535
1.614e+10       0.591043353        -63.0525329         2.51353985         34.7130146        0.145731665         19.3620146        0.104574665         73.5805279
1.6145e+10       0.590674614        -63.1847896         2.51351038         34.5586792        0.145803786         19.2319292        0.104737393         73.5558647
1.615e+10       0.590305392        -63.3169985         2.51348133          34.404351        0.145875969          19.101851        0.104899912         73.5309649
1.6155e+10       0.589935684        -63.4491599         2.51345272         34.2500298        0.145948215         18.9717798        0.105062219           73.50583
1.616e+10        0.58956549         -63.581274         2.51342455         34.0957154        0.146020525         18.8417154        0.105224315          73.480461
1.6165e+10       0.589194811        -63.7133408          2.5133968         33.9414078        0.146092897         18.7116578        0.105386197         73.4548593
1.617e+10       0.588823646        -63.8453605          2.5133695         33.7871068        0.146165333         18.5816068        0.105547864          73.429026
1.6175e+10       0.588451994        -63.9773332         2.51334263         33.6328123        0.146237832         18.4515623        0.105709317         73.4029623
1.618e+10       0.588079856        -64.1092592         2.51331619         33.4785241        0.146310395         18.3215241        0.105870554         73.3766694
1.6185e+10       0.587707231        -64.2411385          2.5132902         33.3242422        0.146383022         18.1914922        0.106031574         73.3501484
1.619e+10       0.587334119        -64.3729713         2.51326464         33.1699664        0.146455712         18.0614664        0.106192376         73.3234006
1.6195e+10       0.586960519        -64.5047577         2.51323952         33.0156966        0.146528466         17.9314466        0.106352959          73.296427
1.62e+10       0.586586431         -64.636498         2.51321484         32.8614327        0.146601283         17.8014327        0.106513323         73.2692287
1.6205e+10       0.586211854        -64.7681922          2.5131906         32.7071745        0.146674165         17.6714245        0.106673465         73.2418069
1.621e+10        0.58583679        -64.8998404          2.5131668         32.5529218        0.146747111         17.5414218        0.106833387         73.2141627
1.6215e+10       0.585461236         -65.031443         2.51314345         32.3986747        0.146820122         17.4114247        0.106993086         73.1862972
1.622e+10       0.585085193        -65.1629999         2.51312053         32.2444329        0.146893196         17.2814329        0.107152562         73.1582113
1.6225e+10       0.584708661        -65.2945114         2.51309806         32.0901963        0.146966335         17.1514463        0.107311814         73.1299062
1.623e+10       0.584331639        -65.4259776         2.51307603         31.9359648        0.147039539         17.0214648        0.107470841          73.101383
1.6235e+10       0.583954127        -65.5573987         2.51305445         31.7817382        0.147112808         16.8914882        0.107629642         73.0726426
1.624e+10       0.583576125        -65.6887747         2.51303331         31.6275165        0.147186141         16.7615165        0.107788216          73.043686
1.6245e+10       0.583197632         -65.820106         2.51301261         31.4732995        0.147259539         16.6315495        0.107946564         73.0145144
1.625e+10       0.582818648        -65.9513926         2.51299236          31.319087        0.147333002          16.501587        0.108104682         72.9851286
1.6255e+10       0.582439172        -66.0826347         2.51297256          31.164879         0.14740653          16.371629        0.108262572         72.9555298
1.626e+10       0.582059206        -66.2138324          2.5129532         31.0106753        0.147480123         16.2416753        0.108420232         72.9257187
1.6265e+10       0.581678747         -66.344986         2.51293429         30.8564757        0.147553782         16.1117257        0.108577662         72.8956964
1.627e+10       0.581297796        -66.4760955         2.51291583         30.7022802        0.147627506         15.9817802        0.108734859         72.8654639
1.6275e+10       0.580916353        -66.6071611         2.51289781         30.5480887        0.147701296         15.8518387        0.108891825         72.8350221
1.628e+10       0.580534417        -66.7381831         2.51288025         30.3939009        0.147775151         15.7219009        0.109048558         72.8043718
1.6285e+10       0.580151988        -66.8691615         2.51286313         30.2397168        0.147849071         15.5919668        0.109205057         72.7735141
1.629e+10       0.579769066        -67.0000965         2.51284646         30.0855362        0.147923058         15.4620362        0.109361321         72.7424498
1.6295e+10        0.57938565        -67.1309883         2.51283025          29.931359        0.147997111          15.332109        0.109517351         72.7111798
1.63e+10        0.57900174         -67.261837         2.51281448          29.777185        0.148071229          15.202185        0.109673144          72.679705
1.6305e+10       0.578617336        -67.3926429         2.51279916         29.6230142        0.148145414         15.0722642          0.1098287         72.6480262
1.631e+10       0.578232438         -67.523406          2.5127843         29.4688464        0.148219664         14.9423464        0.109984019         72.6161443
1.6315e+10       0.577847045        -67.6541266         2.51276989         29.3146815        0.148293981         14.8124315          0.1101391         72.5840602
1.632e+10       0.577461157        -67.7848048         2.51275593         29.1605193        0.148368365         14.6825193        0.110293942         72.5517746
1.6325e+10       0.577074774        -67.9154407         2.51274242         29.0063597        0.148442815         14.5526097        0.110448545         72.5192884
1.633e+10       0.576687895        -68.0460347         2.51272936         28.8522027        0.148517331         14.4227027        0.110602907         72.4866024
1.6335e+10        0.57630052        -68.1765867         2.51271676         28.6980479        0.148591915         14.2927979        0.110757028         72.4537174
1.634e+10       0.575912649         -68.307097         2.51270461         28.5438954        0.148666565         14.1628954        0.110910908         72.4206342
1.6345e+10       0.575524282        -68.4375658         2.51269292         28.3897449        0.148741281         14.0329949        0.111064545         72.3873536
1.635e+10       0.575135418        -68.5679932         2.51268168         28.2355964        0.148816065         13.9030964        0.111217939         72.3538762
1.6355e+10       0.574746058        -68.6983795         2.51267089         28.0814497        0.148890916         13.7731997        0.111371089          72.320203
1.636e+10         0.5743562        -68.8287247         2.51266056         27.9273047        0.148965834         13.6433047        0.111523996         72.2863345
1.6365e+10       0.573965844         -68.959029         2.51265069         27.7731613        0.149040819         13.5134113        0.111676657         72.2522716
1.637e+10       0.573574991        -69.0892927         2.51264127         27.6190193        0.149115872         13.3835193        0.111829072          72.218015
1.6375e+10        0.57318364        -69.2195159          2.5126323         27.4648786        0.149190991         13.2536286        0.111981241         72.1835654
1.638e+10        0.57279179        -69.3496988          2.5126238          27.310739        0.149266179          13.123739        0.112133163         72.1489234
1.6385e+10       0.572399442        -69.4798415         2.51261575         27.1566004        0.149341434         12.9938504        0.112284838         72.1140898
1.639e+10       0.572006595        -69.6099443         2.51260815         27.0024628        0.149416757         12.8639628        0.112436265         72.0790652
1.6395e+10       0.571613249        -69.7400073         2.51260102         26.8483259        0.149492147         12.7340759        0.112587442         72.0438503
1.64e+10       0.571219404        -69.8700307         2.51259434         26.6941896        0.149567606         12.6041896        0.112738371         72.0084458
1.6405e+10       0.570825059        -70.0000147         2.51258812         26.5400538        0.149643132         12.4743038        0.112889049         71.9728524
1.641e+10       0.570430215        -70.1299594         2.51258235         26.3859183        0.149718726         12.3444183        0.113039476         71.9370705
1.6415e+10        0.57003487        -70.2598651         2.51257705         26.2317831        0.149794389         12.2145331        0.113189653          71.901101
1.642e+10       0.569639025        -70.3897319          2.5125722          26.077648        0.149870119          12.084648        0.113339577         71.8649443
1.6425e+10       0.569242679        -70.5195601         2.51256781         25.9235128        0.149945918         11.9547628        0.113489249         71.8286012
1.643e+10       0.568845832        -70.6493497         2.51256388         25.7693775        0.150021786         11.8248775        0.113638668         71.7920721
1.6435e+10       0.568448485         -70.779101          2.5125604         25.6152418        0.150097722         11.6949918        0.113787833         71.7553577
1.644e+10       0.568050636        -70.9088142         2.51255739         25.4611057        0.150173726         11.5651057        0.113936745         71.7184586
1.6445e+10       0.567652285        -71.0384894         2.51255484          25.306969        0.150249799          11.435219        0.114085401         71.6813753
1.645e+10       0.567253432        -71.1681269         2.51255274         25.1528316        0.150325941         11.3053316        0.114233802         71.6441084
1.6455e+10       0.566854078        -71.2977268         2.51255111         24.9986933        0.150402152         11.1754433        0.114381948         71.6066584
1.646e+10       0.566454221        -71.4272894         2.51254993         24.8445541        0.150478431         11.0455541        0.114529837         71.5690259
1.6465e+10       0.566053861        -71.5568148         2.51254921         24.6904137         0.15055478         10.9156637        0.114677468         71.5312113
1.647e+10       0.565652999        -71.6863031         2.51254895          24.536272        0.150631197          10.785772        0.114824843         71.4932153
1.6475e+10       0.565251633        -71.8157547         2.51254916          24.382129        0.150707684          10.655879        0.114971959         71.4550383
1.648e+10       0.564849764        -71.9451697         2.51254982         24.2279845         0.15078424         10.5259845        0.115118817         71.4166808
1.6485e+10       0.564447392        -72.0745483         2.51255094         24.0738382        0.150860865         10.3960882        0.115265415         71.3781433
1.649e+10       0.564044516        -72.2038907         2.51255252         23.9196902        0.150937559         10.2661902        0.115411754         71.3394263
1.6495e+10       0.563641135         -72.333197         2.51255456         23.7655403        0.151014323         10.1362903        0.115557833         71.3005302
1.65e+10       0.563237251        -72.4624676         2.51255706         23.6113883        0.151091157         10.0063883        0.115703651         71.2614555
1.6505e+10       0.562832862        -72.5917025         2.51256002          23.457234         0.15116806         9.87648404        0.115849207         71.2222027
1.651e+10       0.562427968         -72.720902         2.51256345         23.3030775        0.151245033         9.74657748        0.115994502         71.1827722
1.6515e+10        0.56202257        -72.8500663         2.51256733         23.1489184        0.151322076         9.61666844        0.116139535         71.1431644
1.652e+10       0.561616666        -72.9791956         2.51257167         22.9947568        0.151399188         9.48675678        0.116284304         71.1033798
1.6525e+10       0.561210257          -73.10829         2.51257647         22.8405924         0.15147637         9.35684237        0.116428811         71.0634187
1.653e+10       0.560803342        -73.2373499         2.51258173         22.6864251        0.151553623         9.22692508        0.116573054         71.0232817
1.6535e+10       0.560395921        -73.3663753         2.51258745         22.5322548        0.151630945         9.09700476        0.116717032          70.982969
1.654e+10       0.559987994        -73.4953665         2.51259363         22.3780813        0.151708338         8.96708128        0.116860745          70.942481
1.6545e+10       0.559579561        -73.6243238         2.51260027         22.2239045          0.1517858         8.83715451        0.117004194         70.9018182
1.655e+10       0.559170621        -73.7532472         2.51260737         22.0697243        0.151863334          8.7072243        0.117147376         70.8609809
1.6555e+10       0.558761175        -73.8821371         2.51261493         21.9155405        0.151940937         8.57729052        0.117290292         70.8199695
1.656e+10       0.558351221        -74.0109936         2.51262295          21.761353        0.152018611         8.44735304        0.117432941         70.7787842
1.6565e+10        0.55794076        -74.1398169         2.51263143         21.6071617        0.152096355          8.3174117        0.117575324         70.7374256
1.657e+10       0.557529792        -74.2686073         2.51264037         21.4529664         0.15217417         8.18746639        0.117717438         70.6958938
1.6575e+10       0.557118317        -74.3973649         2.51264976          21.298767        0.152252056         8.05751695        0.117859284         70.6541892
1.658e+10       0.556706333        -74.5260901         2.51265962         21.1445633        0.152330012         7.92756326        0.118000861         70.6123122
1.6585e+10       0.556293842        -74.6547829         2.51266993         20.9903552        0.152408039         7.79760517         0.11814217          70.570263
1.659e+10       0.555880842        -74.7834436         2.51268071         20.8361425        0.152486137         7.66764255        0.118283208         70.5280419
1.6595e+10       0.555467333        -74.9120724         2.51269194         20.6819253        0.152564305         7.53767526        0.118423977         70.4856493
1.66e+10       0.555053316        -75.0406696         2.51270363         20.5277032        0.152642545         7.40770315        0.118564475         70.4430854
1.6605e+10       0.554638791        -75.1692353         2.51271578         20.3734761        0.152720856          7.2777261        0.118704702         70.4003504
1.661e+10       0.554223756        -75.2977698         2.51272838          20.219244        0.152799238         7.14774397        0.118844657         70.3574447
1.6615e+10       0.553808211        -75.4262732         2.51274145         20.0650066        0.152877691         7.01775661        0.118984341         70.3143685
1.662e+10       0.553392157        -75.5547459         2.51275497         19.9107639        0.152956215         6.88776388        0.119123752         70.2711221
1.6625e+10       0.552975594         -75.683188         2.51276895         19.7565157        0.153034811         6.75776566         0.11926289         70.2277057
1.663e+10       0.552558521        -75.8115998         2.51278338         19.6022618        0.153113478         6.62776179        0.119401755         70.1841194
1.6635e+10       0.552140937        -75.9399815         2.51279828         19.4480022        0.153192216         6.49775215        0.119540346         70.1403636
1.664e+10       0.551722843        -76.0683333         2.51281363         19.2937366        0.153271026         6.36773659        0.119678663         70.0964385
1.6645e+10       0.551304239        -76.1966554         2.51282943          19.139465        0.153349908         6.23771497        0.119816705         70.0523443
1.665e+10       0.550885124         -76.324948         2.51284569         18.9851872        0.153428861         6.10768716        0.119954472         70.0080811
1.6655e+10       0.550465498        -76.4532115         2.51286241          18.830903        0.153507885         5.97765301        0.120091963         69.9636491
1.666e+10       0.550045361         -76.581446         2.51287958         18.6766124        0.153586982         5.84761239        0.120229179         69.9190486
1.6665e+10       0.549624713        -76.7096517         2.51289721         18.5223152         0.15366615         5.71756515        0.120366118         69.8742797
1.667e+10       0.549203554        -76.8378289         2.51291529         18.3680112         0.15374539         5.58751116         0.12050278         69.8293426
1.6675e+10       0.548781882        -76.9659778         2.51293382         18.2137003        0.153824702         5.45745027        0.120639165         69.7842374
1.668e+10       0.548359699        -77.0940987         2.51295281         18.0593824        0.153904086         5.32738236        0.120775272         69.7389643
1.6685e+10       0.547937004        -77.2221918         2.51297225         17.9050573        0.153983542         5.19730727        0.120911101         69.6935235
1.669e+10       0.547513797        -77.3502573         2.51299215         17.7507249         0.15406307         5.06722486        0.121046651         69.6479149
1.6695e+10       0.547090077        -77.4782954          2.5130125          17.596385         0.15414267         4.93713501        0.121181922         69.6021389
1.67e+10       0.546665845        -77.6063064          2.5130333         17.4420376        0.154222343         4.80703756        0.121316913         69.5561955
1.6705e+10         0.5462411        -77.7342906         2.51305455         17.2876824        0.154302087         4.67693237        0.121451625         69.5100848
1.671e+10       0.545815842        -77.8622481         2.51307626         17.1333193        0.154381904         4.54681932        0.121586056         69.4638069
1.6715e+10       0.545390071        -77.9901793         2.51309841         16.9789482        0.154461793         4.41669824        0.121720206         69.4173619
1.672e+10       0.544963786        -78.1180843         2.51312102          16.824569        0.154541755         4.28656902        0.121854075         69.3707499
1.6725e+10       0.544536989        -78.2459634         2.51314407         16.6701815        0.154621789         4.15643149        0.121987663         69.3239711
1.673e+10       0.544109677        -78.3738169         2.51316758         16.5157855        0.154701895         4.02628553        0.122120968         69.2770253
1.6735e+10       0.543681852         -78.501645         2.51319153          16.361381        0.154782074         3.89613099         0.12225399         69.2299128
1.674e+10       0.543253513        -78.6294479         2.51321594         16.2069677        0.154862326         3.76596774         0.12238673         69.1826335
1.6745e+10       0.542824659         -78.757226         2.51324079         16.0525456         0.15494265         3.63579562        0.122519186         69.1351876
1.675e+10       0.542395292        -78.8849793         2.51326609         15.8981145        0.155023047          3.5056145        0.122651358          69.087575
1.6755e+10        0.54196541        -79.0127083         2.51329183         15.7436742        0.155103517         3.37542424        0.122783246         69.0397959
1.676e+10       0.541535013        -79.1404131         2.51331803         15.5892247        0.155184059         3.24522469         0.12291485         68.9918501
1.6765e+10       0.541104101         -79.268094         2.51334466         15.4347657        0.155264675         3.11501572        0.123046168         68.9437378
1.677e+10       0.540672674        -79.3957513         2.51337175         15.2802972        0.155345363         2.98479718          0.1231772          68.895459
1.6775e+10       0.540240733        -79.5233852         2.51339928         15.1258189        0.155426124         2.85456894        0.123307947         68.8470136
1.678e+10       0.539808276         -79.650996         2.51342725         14.9713308        0.155506958         2.72433084        0.123438407         68.7984016
1.6785e+10       0.539375303        -79.7785839         2.51345567         14.8168327        0.155587865         2.59408275         0.12356858         68.7496231
1.679e+10       0.538941815        -79.9061492         2.51348453         14.6623245        0.155668845         2.46382452        0.123698466         68.7006781
1.6795e+10       0.538507811        -80.0336921         2.51351383          14.507806        0.155749898         2.33355601        0.123828064         68.6515664
1.68e+10       0.538073291         -80.161213         2.51354357         14.3532771        0.155831024         2.20327709        0.123957374         68.6022881
1.6805e+10       0.537638255         -80.288712         2.51357376         14.1987376        0.155912224          2.0729876        0.124086395         68.5528432
1.681e+10       0.537202703        -80.4161895         2.51360438         14.0441874        0.155993496         1.94268741        0.124215127         68.5032315
1.6815e+10       0.536766635        -80.5436458         2.51363545         13.8896264        0.156074842         1.81237638         0.12434357         68.4534531
1.682e+10       0.536330049         -80.671081         2.51366696         13.7350543        0.156156261         1.68205435        0.124471723         68.4035078
1.6825e+10       0.535892948        -80.7984954          2.5136989         13.5804712        0.156237754         1.55172119        0.124599585         68.3533956
1.683e+10       0.535455329        -80.9258894         2.51373128         13.4258768        0.156319319         1.42137675        0.124727157         68.3031165
1.6835e+10       0.535017193        -81.0532631          2.5137641         13.2712709        0.156400959          1.2910209        0.124854437         68.2526703
1.684e+10        0.53457854         -81.180617         2.51379735         13.1166535        0.156482671         1.16065348        0.124981426         68.2020569
1.6845e+10        0.53413937        -81.3079511         2.51383104         12.9620244        0.156564457         1.03027436        0.125108123         68.1512763
1.685e+10       0.533699683        -81.4352659         2.51386517         12.8073834        0.156646317        0.899883389        0.125234527         68.1003283
1.6855e+10       0.533259478        -81.5625616         2.51389973         12.6527304         0.15672825        0.769480428        0.125360638         68.0492129
1.686e+10       0.532818755        -81.6898385         2.51393472         12.4980653        0.156810256        0.639065332        0.125486455         67.9979299
1.6865e+10       0.532377514        -81.8170968         2.51397014          12.343388        0.156892337        0.508637957        0.125611979         67.9464792
1.687e+10       0.531935756        -81.9443369           2.514006         12.1886982         0.15697449         0.37819816        0.125737208         67.8948607
1.6875e+10       0.531493479         -82.071559         2.51404229         12.0339958        0.157056718        0.247745796        0.125862143         67.8430741
1.688e+10       0.531050684        -82.1987634         2.51407901         11.8792807        0.157139019        0.117280722        0.125986782         67.7911195
1.6885e+10        0.53060737        -82.3259504         2.51411615         11.7245528        0.157221394      -0.0131972059        0.126111125         67.7389966
1.689e+10       0.530163538        -82.4531202         2.51415373         11.5698119        0.157303842       -0.143688132        0.126235173         67.6867052
1.6895e+10       0.529719188        -82.5802733         2.51419173         11.4150578        0.157386365       -0.274192201        0.126358924         67.6342453
1.69e+10       0.529274318        -82.7074098         2.51423016         11.2602904        0.157468961       -0.404709557        0.126482377         67.5816166
1.6905e+10        0.52882893          -82.83453         2.51426902         11.1055097        0.157551631       -0.535240344        0.126605534         67.5288189
1.691e+10       0.528383022        -82.9616343          2.5143083         10.9507153        0.157634374       -0.665784707        0.126728392          67.475852
1.6915e+10       0.527936596         -83.088723         2.51434801         10.7959072        0.157717192        -0.79634279        0.126850952         67.4227159
1.692e+10        0.52748965        -83.2157962         2.51438813         10.6410853        0.157800084       -0.926914739        0.126973213         67.3694102
1.6925e+10       0.527042184        -83.3428544         2.51442868         10.4862493        0.157883049         -1.0575007        0.127095174         67.3159347
1.693e+10       0.526594199        -83.4698979         2.51446966         10.3313992        0.157966088        -1.18810081        0.127216836         67.2622893
1.6935e+10       0.526145695        -83.5969269         2.51451105         10.1765348        0.158049201        -1.31871522        0.127338197         67.2084737
1.694e+10        0.52569667        -83.7239417         2.51455286         10.0216559        0.158132389        -1.44934408        0.127459258         67.1544877
1.6945e+10       0.525247126        -83.8509426         2.51459509         9.86676247         0.15821565        -1.57998753        0.127580017         67.1003311
1.695e+10       0.524797062        -83.9779301         2.51463774         9.71185429        0.158298985        -1.71064571        0.127700475         67.0460036
1.6955e+10       0.524346477        -84.1049042          2.5146808         9.55693122        0.158382394        -1.84131878         0.12782063         66.9915049
1.696e+10       0.523895372        -84.2318655         2.51472428         9.40199313        0.158465878        -1.97200687        0.127940483         66.9368348
1.6965e+10       0.523443747        -84.3588141         2.51476817         9.24703987        0.158549435        -2.10271013        0.128060033         66.8819931
1.697e+10       0.522991601        -84.4857504         2.51481248         9.09207129        0.158633066        -2.23342871        0.128179279         66.8269795
1.6975e+10       0.522538935        -84.6126746          2.5148572         8.93708724        0.158716772        -2.36416276         0.12829822         66.7717937
1.698e+10       0.522085747        -84.7395873         2.51490233         8.78208759        0.158800551        -2.49491241        0.128416858         66.7164355
1.6985e+10       0.521632039        -84.8664885         2.51494788         8.62707218        0.158884405        -2.62567782         0.12853519         66.6609044
1.699e+10       0.521177811        -84.9933787         2.51499383         8.47204087        0.158968333        -2.75645913        0.128653216         66.6052003
1.6995e+10        0.52072306        -85.1202582         2.51504018         8.31699351        0.159052335        -2.88725649        0.128770936         66.5493229
1.7e+10       0.520267789        -85.2471272         2.51508695         8.16192996        0.159136411        -3.01807004         0.12888835         66.4932718
1.7005e+10       0.519836537        -85.3749075         2.51517119         8.00858377        0.159224586        -3.14791623        0.129012714         66.4406951
1.701e+10       0.519404781        -85.5026842         2.51525593          7.8552221        0.159312842         -3.2777779        0.129136803         66.3879269
1.7015e+10       0.518972521        -85.6304577         2.51534118         7.70184479        0.159401179        -3.40765521        0.129260616          66.334967
1.702e+10       0.518539757        -85.7582283         2.51542692         7.54845168        0.159489597        -3.53754832        0.129384154         66.2818151
1.7025e+10       0.518106487        -85.8859964         2.51551317         7.39504265        0.159578096        -3.66745735        0.129507414          66.228471
1.703e+10       0.517672714        -86.0137623         2.51559992         7.24161752        0.159666675        -3.79738248        0.129630396         66.1749344
1.7035e+10       0.517238435        -86.1415264         2.51568716         7.08817616        0.159755336        -3.92732384        0.129753101         66.1212051
1.704e+10       0.516803652        -86.2692891          2.5157749          6.9347184        0.159844078         -4.0572816        0.129875526         66.0672829
1.7045e+10       0.516368364        -86.3970507         2.51586314         6.78124411          0.1599329        -4.18725589        0.129997672         66.0131675
1.705e+10       0.515932571        -86.5248115         2.51595187         6.62775313        0.160021804        -4.31724687        0.130119538         65.9588585
1.7055e+10       0.515496273         -86.652572          2.5160411         6.47424531        0.160110789        -4.44725469        0.130241123         65.9043558
1.706e+10       0.515059469        -86.7803325         2.51613083          6.3207205        0.160199855         -4.5772795        0.130362427          65.849659
1.7065e+10        0.51462216        -86.9080934         2.51622104         6.16717854        0.160289002        -4.70732146        0.130483448         65.7947678
1.707e+10       0.514184345        -87.0358551         2.51631175          6.0136193         0.16037823         -4.8373807        0.130604187          65.739682
1.7075e+10       0.513746025        -87.1636179         2.51640295         5.86004261         0.16046754        -4.96745739        0.130724642         65.6844013
1.708e+10         0.5133072        -87.2913822         2.51649464         5.70644832        0.160556931        -5.09755168        0.130844812         65.6289253
1.7085e+10       0.512867868        -87.4191484         2.51658683         5.55283629        0.160646403        -5.22766371        0.130964698         65.5732537
1.709e+10        0.51242803        -87.5469168          2.5166795         5.39920636        0.160735957        -5.35779364        0.131084299         65.5173862
1.7095e+10       0.511987687        -87.6746879         2.51677265         5.24555838        0.160825591        -5.48794162        0.131203613         65.4613225
1.71e+10       0.511546837         -87.802462          2.5168663          5.0918922        0.160915308         -5.6181078         0.13132264         65.4050623
1.7105e+10       0.511105481        -87.9302395         2.51696043         4.93820767        0.161005105        -5.74829233         0.13144138         65.3486051
1.711e+10       0.510663619        -88.0580209         2.51705505         4.78450462        0.161094984        -5.87849538        0.131559832         65.2919507
1.7115e+10       0.510221251        -88.1858064         2.51715015         4.63078292        0.161184945        -6.00871708        0.131677994         65.2350987
1.712e+10       0.509778375        -88.3135965         2.51724573         4.47704241        0.161274987        -6.13895759        0.131795867         65.1780487
1.7125e+10       0.509334994        -88.4413916         2.51734179         4.32328294         0.16136511        -6.26921706         0.13191345         65.1208003
1.713e+10       0.508891105         -88.569192         2.51743834         4.16950435        0.161455315        -6.39949565        0.132030742         65.0633533
1.7135e+10        0.50844671        -88.6969982         2.51753536         4.01570649        0.161545602        -6.52979351        0.132147741         65.0057072
1.714e+10       0.508001808        -88.8248106         2.51763287         3.86188921         0.16163597        -6.66011079        0.132264449         64.9478616
1.7145e+10       0.507556399        -88.9526296         2.51773085         3.70805236         0.16172642        -6.79044764        0.132380863         64.8898162
1.715e+10       0.507110483        -89.0804555         2.51782931         3.55419577        0.161816951        -6.92080423        0.132496984         64.8315705
1.7155e+10        0.50666406        -89.2082889         2.51792824         3.40031931        0.161907564        -7.05118069         0.13261281         64.7731241
1.716e+10       0.506217129          -89.33613         2.51802765         3.24642281        0.161998258        -7.18157719         0.13272834         64.7144767
1.7165e+10       0.505769692        -89.4639793         2.51812753         3.09250612        0.162089034        -7.31199388        0.132843575         64.6556277
1.717e+10       0.505321747        -89.5918372         2.51822788         2.93856909        0.162179892        -7.44243091        0.132958513         64.5965769
1.7175e+10       0.504873294        -89.7197042         2.51832871         2.78461156        0.162270832        -7.57288844        0.133073154         64.5373236
1.718e+10       0.504424334        -89.8475806            2.51843         2.63063338        0.162361853        -7.70336662        0.133187496         64.4778677
1.7185e+10       0.503974866        -89.9754669         2.51853176          2.4766344        0.162452956         -7.8338656         0.13330154         64.4182085
1.719e+10       0.503524891        -90.1033635         2.51863399         2.32261445        0.162544141        -7.96438555        0.133415284         64.3583456
1.7195e+10       0.503074407        -90.2312708         2.51873669          2.1685734        0.162635407         -8.0949266        0.133528727         64.2982786
1.72e+10       0.502623416        -90.3591892         2.51883985         2.01451107        0.162726755        -8.22548893         0.13364187         64.2380069
1.7205e+10       0.502171917        -90.4871192         2.51894348         1.86042732        0.162818185        -8.35607268         0.13375471         64.1775303
1.721e+10        0.50171991        -90.6150612         2.51904756           1.706322        0.162909696          -8.486678        0.133867248         64.1168481
1.7215e+10       0.501267395        -90.7430157         2.51915211         1.55219494         0.16300129        -8.61730506        0.133979483         64.0559599
1.722e+10       0.500814372         -90.870983         2.51925712         1.39804599        0.163092965        -8.74795401        0.134091414         63.9948652
1.7225e+10        0.50036084        -90.9989636         2.51936259         1.24387499        0.163184722        -8.87862501         0.13420304         63.9335635
1.723e+10         0.4999068        -91.1269579         2.51946852          1.0896818        0.163276561         -9.0093182         0.13431436         63.8720543
1.7235e+10       0.499452252        -91.2549665          2.5195749        0.935466255        0.163368481        -9.14003375        0.134425374         63.8103372
1.724e+10       0.498997196        -91.3829897         2.51968174        0.781228197        0.163460483         -9.2707718        0.134536081         63.7484115
1.7245e+10       0.498541631         -91.511028         2.51978903        0.626967471        0.163552567        -9.40153253         0.13464648         63.6862768
1.725e+10       0.498085557        -91.6390818         2.51989677        0.472683923        0.163644733        -9.53231608         0.13475657         63.6239326
1.7255e+10       0.497628975        -91.7671516         2.52000497        0.318377396        0.163736981         -9.6631226        0.134866351         63.5613783
1.726e+10       0.497171884        -91.8952378         2.52011361        0.164047733         0.16382931        -9.79395227        0.134975822         63.4986134
1.7265e+10       0.496714284        -92.0233409          2.5202227       0.0096947775        0.163921722        -9.92480522        0.135084982         63.4356374
1.727e+10       0.496256176        -92.1514614         2.52033224       -0.144681627        0.164014215        -10.0556816         0.13519383         63.3724496
1.7275e+10       0.495797559        -92.2795998         2.52044223       -0.299081637        0.164106789        -10.1865816        0.135302365         63.3090496
1.728e+10       0.495338433        -92.4077564         2.52055265        -0.45350541        0.164199446        -10.3175054        0.135410587         63.2454368
1.7285e+10       0.494878797        -92.5359317         2.52066353       -0.607953102        0.164292184        -10.4484531        0.135518495         63.1816106
1.729e+10       0.494418653        -92.6641263         2.52077484       -0.762424872        0.164385004        -10.5794249        0.135626088         63.1175704
1.7295e+10          0.493958        -92.7923406         2.52088659       -0.916920877        0.164477906        -10.7104209        0.135733365         63.0533157
1.73e+10       0.493496838        -92.9205751         2.52099878        -1.07144127         0.16457089        -10.8414413        0.135840325         62.9888459
1.7305e+10       0.493035166        -93.0488302         2.52111141        -1.22598622        0.164663955        -10.9724862        0.135946969         62.9241604
1.731e+10       0.492572986        -93.1771065         2.52122447        -1.38055588        0.164757102        -11.1035559        0.136053293         62.8592586
1.7315e+10       0.492110296        -93.3054043         2.52133797         -1.5351504        0.164850331        -11.2346504        0.136159299         62.7941398
1.732e+10       0.491647097        -93.4337243          2.5214519        -1.68976994        0.164943642        -11.3657699        0.136264985         62.7288035
1.7325e+10       0.491183388        -93.5620669         2.52156626        -1.84441467        0.165037034        -11.4969147        0.136370351         62.6632491
1.733e+10        0.49071917        -93.6904325         2.52168105        -1.99908474        0.165130508        -11.6280847        0.136475395         62.5974759
1.7335e+10       0.490254443        -93.8188217         2.52179627         -2.1537803        0.165224064        -11.7592803        0.136580116         62.5314834
1.734e+10       0.489789206         -93.947235         2.52191191        -2.30850153        0.165317701        -11.8905015        0.136684515         62.4652708
1.7345e+10        0.48932346        -94.0756729         2.52202798        -2.46324857         0.16541142        -12.0217486        0.136788589         62.3988375
1.735e+10       0.488857204        -94.2041358         2.52214447        -2.61802159         0.16550522        -12.1530216        0.136892338         62.3321829
1.7355e+10       0.488390438        -94.3326244         2.52226138        -2.77282075        0.165599103        -12.2843207        0.136995762         62.2653063
1.736e+10       0.487923163         -94.461139         2.52237872         -2.9276462        0.165693066        -12.4156462        0.137098859         62.1982071
1.7365e+10       0.487455378        -94.5896802         2.52249647        -3.08249811        0.165787112        -12.5469981        0.137201629         62.1308846
1.737e+10       0.486987084        -94.7182486         2.52261464        -3.23737663        0.165881239        -12.6783766        0.137304071         62.0633381
1.7375e+10        0.48651828        -94.8468446         2.52273322        -3.39228192        0.165975447        -12.8097819        0.137406183          61.995567
1.738e+10       0.486048966        -94.9754687         2.52285222        -3.54721415        0.166069737        -12.9412141        0.137507965         61.9275705
1.7385e+10       0.485579142        -95.1041215         2.52297162        -3.70217347        0.166164108        -13.0726735        0.137609416          61.859348
1.739e+10       0.485108808        -95.2328035         2.52309144        -3.85716005        0.166258561        -13.2041601        0.137710536         61.7908988
1.7395e+10       0.484637965        -95.3615153         2.52321167        -4.01217404        0.166353095         -13.335674        0.137811322         61.7222221
1.74e+10       0.484166612        -95.4902573          2.5233323        -4.16721561        0.166447711        -13.4672156        0.137911776         61.6533173
1.7405e+10       0.483694749        -95.6190301         2.52345334        -4.32228492        0.166542408        -13.5987849        0.138011894         61.5841836
1.741e+10       0.483222376        -95.7478342         2.52357478        -4.47738213        0.166637186        -13.7303821        0.138111678         61.5148203
1.7415e+10       0.482749493        -95.8766703         2.52369662        -4.63250739        0.166732046        -13.8620074        0.138211125         61.4452267
1.742e+10         0.4822761        -96.0055387         2.52381886        -4.78766088        0.166826987        -13.9936609        0.138310235         61.3754021
1.7425e+10       0.481802197        -96.1344401          2.5239415        -4.94284274        0.166922009        -14.1253427        0.138409007         61.3053456
1.743e+10       0.481327784        -96.2633751         2.52406453        -5.09805315        0.167017112        -14.2570532         0.13850744         61.2350566
1.7435e+10       0.480852862        -96.3923441         2.52418796        -5.25329227        0.167112296        -14.3887923        0.138605533         61.1645343
1.744e+10       0.480377429        -96.5213477         2.52431178        -5.40856026        0.167207562        -14.5205603        0.138703285         61.0937779
1.7445e+10       0.479901486        -96.6503866         2.52443599        -5.56385727        0.167302909        -14.6523573        0.138800695         61.0227867
1.745e+10       0.479425033        -96.7794612         2.52456059        -5.71918347        0.167398337        -14.7841835        0.138897763         60.9515599
1.7455e+10        0.47894807        -96.9085721         2.52468558        -5.87453903        0.167493845         -14.916039        0.138994487         60.8800967
1.746e+10       0.478470597        -97.0377199         2.52481095        -6.02992411        0.167589435        -15.0479241        0.139090867         60.8083963
1.7465e+10       0.477992614        -97.1669051         2.52493671        -6.18533887        0.167685106        -15.1798389        0.139186901          60.736458
1.747e+10       0.477514121        -97.2961285         2.52506284        -6.34078347        0.167780858        -15.3117835        0.139282589         60.6642809
1.7475e+10       0.477035117        -97.4253904         2.52518936        -6.49625807         0.16787669        -15.4437581        0.139377929         60.5918642
1.748e+10       0.476555604        -97.5546915         2.52531625        -6.65176285        0.167972603        -15.5757628        0.139472921         60.5192071
1.7485e+10        0.47607558        -97.6840324         2.52544351        -6.80729796        0.168068598         -15.707798        0.139567564         60.4463088
1.749e+10       0.475595047        -97.8134137         2.52557115        -6.96286356        0.168164672        -15.8398636        0.139661856         60.3731684
1.7495e+10       0.475114003         -97.942836         2.52569917        -7.11845983        0.168260828        -15.9719598        0.139755798         60.2997852
1.75e+10        0.47463245        -98.0722998         2.52582755        -7.27408692        0.168357064        -16.1040869        0.139849387         60.2261583
1.7505e+10       0.474150386        -98.2018058         2.52595629        -7.42974499         0.16845338         -16.236245        0.139942622         60.1522868
1.751e+10       0.473667812        -98.3313546         2.52608541        -7.58543422        0.168549778        -16.3684342        0.140035504         60.0781699
1.7515e+10       0.473184728        -98.4609468         2.52621488        -7.74115477        0.168646255        -16.5006548        0.140128031         60.0038067
1.752e+10       0.472701134         -98.590583         2.52634472         -7.8969068        0.168742813        -16.6329068        0.140220201         59.9291964
1.7525e+10        0.47221703        -98.7202637         2.52647492        -8.05269048        0.168839452        -16.7651905        0.140312015         59.8543381
1.753e+10       0.471732416        -98.8499897         2.52660547        -8.20850597         0.16893617         -16.897506         0.14040347          59.779231
1.7535e+10       0.471247291        -98.9797616         2.52673638        -8.36435343        0.169032969        -17.0298534        0.140494566          59.703874
1.754e+10       0.470761657        -99.1095799         2.52686764        -8.52023304        0.169129848         -17.162233        0.140585303         59.6282664
1.7545e+10       0.470275513        -99.2394453         2.52699925        -8.67614496        0.169226808         -17.294645        0.140675678         59.5524072
1.755e+10       0.469788859        -99.3693584         2.52713121        -8.83208935        0.169323847        -17.4270893        0.140765691         59.4762956
1.7555e+10       0.469301694          -99.49932         2.52726352        -8.98806638        0.169420966        -17.5595664         0.14085534         59.3999305
1.756e+10        0.46881402        -99.6293305         2.52739617        -9.14407621        0.169518165        -17.6920762        0.140944626         59.3233112
1.7565e+10       0.468325836        -99.7593907         2.52752916        -9.30011902        0.169615444         -17.824619        0.141033547         59.2464366
1.757e+10       0.467837142        -99.8895012         2.52766249        -9.45619497        0.169712803         -17.957195        0.141122101         59.1693059
1.7575e+10       0.467347938        -100.019663         2.52779616        -9.61230422        0.169810242        -18.0898042        0.141210288         59.0919181
1.758e+10       0.466858224        -100.149876         2.52793017        -9.76844694         0.16990776        -18.2224469        0.141298107         59.0142723
1.7585e+10          0.466368        -100.280141         2.52806451         -9.9246233        0.170005358        -18.3551233        0.141385557         58.9363675
1.759e+10       0.465877267        -100.410459         2.52819917        -10.0808335        0.170103036        -18.4878335        0.141472636         58.8582027
1.7595e+10       0.465386024        -100.540831         2.52833417        -10.2370776        0.170200793        -18.6205776        0.141559344          58.779777
1.76e+10       0.464894271        -100.671257          2.5284695        -10.3933559        0.170298629        -18.7533559         0.14164568         58.7010894
1.7605e+10       0.464402008        -100.801739         2.52860514        -10.5496685        0.170396544        -18.8861685        0.141731642         58.6221389
1.761e+10       0.463909235        -100.932275         2.52874111        -10.7060156        0.170494539        -19.0190156        0.141817229         58.5429246
1.7615e+10       0.463415953        -101.062868          2.5288774        -10.8623973        0.170592613        -19.1518973        0.141902441         58.4634454
1.762e+10       0.462922161        -101.193519         2.52901401        -11.0188138        0.170690766        -19.2848138        0.141987277         58.3837004
1.7625e+10        0.46242786        -101.324226         2.52915093        -11.1752653        0.170788998        -19.4177653        0.142071734         58.3036885
1.763e+10       0.461933049        -101.454992         2.52928816         -11.331752        0.170887309         -19.550752        0.142155813         58.2234088
1.7635e+10       0.461437729        -101.585818          2.5294257         -11.488274        0.170985699         -19.683774        0.142239512         58.1428601
1.764e+10       0.460941899        -101.716703         2.52956355        -11.6448314        0.171084168        -19.8168314         0.14232283         58.0620415
1.7645e+10        0.46044556        -101.847648         2.52970171        -11.8014246        0.171182715        -19.9499246        0.142405766          57.980952
1.765e+10       0.459948711        -101.978655         2.52984017        -11.9580535        0.171281341        -20.0830535        0.142488319         57.8995904
1.7655e+10       0.459451353        -102.109724         2.52997892        -12.1147185        0.171380045        -20.2162185        0.142570488         57.8179558
1.766e+10       0.458953486        -102.240855         2.53011798        -12.2714196        0.171478828        -20.3494196        0.142652272         57.7360471
1.7665e+10        0.45845511         -102.37205         2.53025733         -12.428157        0.171577689         -20.482657        0.142733669         57.6538632
1.767e+10       0.457956224        -102.503309         2.53039697         -12.584931        0.171676628         -20.615931        0.142814679         57.5714031
1.7675e+10        0.45745683        -102.634633          2.5305369        -12.7417416        0.171775646        -20.7492416          0.1428953         57.4886657
1.768e+10       0.456956926        -102.766022         2.53067712        -12.8985891        0.171874741        -20.8825891        0.142975532         57.4056498
1.7685e+10       0.456456513        -102.897478         2.53081763        -13.0554736        0.171973915        -21.0159736        0.143055372         57.3223545
1.769e+10       0.455955592        -103.029001         2.53095842        -13.2123953        0.172073166        -21.1493953        0.143134821         57.2387785
1.7695e+10       0.455454161        -103.160592         2.53109948        -13.3693544        0.172172495        -21.2828544        0.143213877         57.1549209
1.77e+10       0.454952222        -103.292251         2.53124083         -13.526351        0.172271901         -21.416351        0.143292539         57.0707804
1.7705e+10       0.454449774         -103.42398         2.53138245        -13.6833853        0.172371386        -21.5498853        0.143370806          56.986356
1.771e+10       0.453946818        -103.555779         2.53152434        -13.8404575        0.172470947        -21.6834575        0.143448676         56.9016465
1.7715e+10       0.453443353        -103.687648          2.5316665        -13.9975677        0.172570586        -21.8170677        0.143526149         56.8166508
1.772e+10       0.452939379         -103.81959         2.53180892        -14.1547161        0.172670302        -21.9507161        0.143603223         56.7313677
1.7725e+10       0.452434897        -103.951604         2.53195161        -14.3119029        0.172770096        -22.0844029        0.143679898         56.6457962
1.773e+10       0.451929907        -104.083691         2.53209456        -14.4691283        0.172869966        -22.2181283        0.143756172          56.559935
1.7735e+10       0.451424408        -104.215852         2.53223777        -14.6263925        0.172969913        -22.3518925        0.143832044         56.4737829
1.774e+10       0.450918402        -104.348088         2.53238124        -14.7836955        0.173069937        -22.4856955        0.143907512         56.3873389
1.7745e+10       0.450411887          -104.4804         2.53252496        -14.9410377        0.173170038        -22.6195377        0.143982577         56.3006016
1.775e+10       0.449904864        -104.612788         2.53266893        -15.0984191        0.173270215        -22.7534191        0.144057236           56.21357
1.7755e+10       0.449397333        -104.745253         2.53281314        -15.2558399        0.173370469        -22.8873399        0.144131489         56.1262429
1.776e+10       0.448889295        -104.877797          2.5329576        -15.4133003        0.173470799        -23.0213003        0.144205334         56.0386189
1.7765e+10       0.448380748        -105.010419         2.53310231        -15.5708005        0.173571205        -23.1553005         0.14427877          55.950697
1.777e+10       0.447871694        -105.143122         2.53324725        -15.7283407        0.173671688        -23.2893407        0.144351796         55.8624758
1.7775e+10       0.447362133        -105.275904         2.53339243         -15.885921        0.173772246         -23.423421        0.144424411         55.7739543
1.778e+10       0.446852064        -105.408769         2.53353784        -16.0435416         0.17387288        -23.5575416        0.144496614          55.685131
1.7785e+10       0.446341488        -105.541715         2.53368348        -16.2012027         0.17397359        -23.6917027        0.144568403         55.5960049
1.779e+10       0.445830404        -105.674745         2.53382934        -16.3589044        0.174074376        -23.8259044        0.144639778         55.5065746
1.7795e+10       0.445318813        -105.807858         2.53397544        -16.5166469        0.174175237        -23.9601469        0.144710737         55.4168388
1.78e+10       0.444806716        -105.941056         2.53412175        -16.6744305        0.174276173        -24.0944305        0.144781279         55.3267964
1.7805e+10       0.444294111         -106.07434         2.53426828        -16.8322553        0.174377185        -24.2287553        0.144851404          55.236446
1.781e+10          0.443781        -106.207711         2.53441503        -16.9901214        0.174478272        -24.3631214        0.144921109         55.1457864
1.7815e+10       0.443267382        -106.341169         2.53456199         -17.148029        0.174579433         -24.497529        0.144990393         55.0548162
1.782e+10       0.442753257        -106.474715         2.53470916        -17.3059783         0.17468067        -24.6319783        0.145059257         54.9635342
1.7825e+10       0.442238627        -106.608351         2.53485654        -17.4639696        0.174781981        -24.7664696        0.145127697         54.8719391
1.783e+10       0.441723489        -106.742076         2.53500412        -17.6220029        0.174883366        -24.9010029        0.145195714         54.7800295
1.7835e+10       0.441207846        -106.875893          2.5351519        -17.7800784        0.174984826        -25.0355784        0.145263305         54.6878042
1.784e+10       0.440691697        -107.009801         2.53529988        -17.9381963        0.175086361        -25.1701963        0.145330471         54.5952617
1.7845e+10       0.440175041        -107.143803         2.53544805        -18.0963569        0.175187969        -25.3048569        0.145397209         54.5024008
1.785e+10        0.43965788        -107.277898         2.53559641        -18.2545602        0.175289651        -25.4395602        0.145463518           54.40922
1.7855e+10       0.439140214        -107.412087         2.53574496        -18.4128065        0.175391407        -25.5743065        0.145529398         54.3157182
1.786e+10       0.438622041        -107.546373         2.53589369        -18.5710959        0.175493237        -25.7090959        0.145594847         54.2218938
1.7865e+10       0.438103364        -107.680754         2.53604261        -18.7294286        0.175595141        -25.8439286        0.145659864         54.1277455
1.787e+10       0.437584181        -107.815233         2.53619171        -18.8878048        0.175697117        -25.9788048        0.145724448          54.033272
1.7875e+10       0.437064494        -107.949811         2.53634097        -19.0462247        0.175799167        -26.1137247        0.145788597         53.9384718
1.788e+10       0.436544301        -108.084488         2.53649042        -19.2046884         0.17590129        -26.2486884        0.145852311         53.8433435
1.7885e+10       0.436023604        -108.219265         2.53664003        -19.3631961        0.176003486        -26.3836961        0.145915588         53.7478858
1.789e+10       0.435502402        -108.354144          2.5367898        -19.5217481        0.176105755        -26.5187481        0.145978427         53.6520972
1.7895e+10       0.434980696        -108.489124         2.53693974        -19.6803444        0.176208096        -26.6538444        0.146040827         53.5559763
1.79e+10       0.434458485        -108.624208         2.53708983        -19.8389853        0.176310509        -26.7889853        0.146102787         53.4595217
1.7905e+10       0.433935771        -108.759396         2.53724008        -19.9976709        0.176412995        -26.9241709        0.146164306         53.3627319
1.791e+10       0.433412553         -108.89469         2.53739049        -20.1564015        0.176515553        -27.0594015        0.146225382         53.2656054
1.7915e+10       0.432888831        -109.030089         2.53754104        -20.3151771        0.176618183        -27.1946771        0.146286015         53.1681409
1.792e+10       0.432364605        -109.165596         2.53769173        -20.4739981        0.176720884        -27.3299981        0.146346202         53.0703368
1.7925e+10       0.431839876        -109.301211         2.53784257        -20.6328645        0.176823657        -27.4653645        0.146405944         52.9721917
1.793e+10       0.431314644        -109.436935         2.53799355        -20.7917766        0.176926502        -27.6007766        0.146465238         52.8737041
1.7935e+10        0.43078891        -109.572769         2.53814466        -20.9507345        0.177029418        -27.7362345        0.146524084         52.7748725
1.794e+10       0.430262672        -109.708715          2.5382959        -21.1097384        0.177132405        -27.8717384         0.14658248         52.6756953
1.7945e+10       0.429735932        -109.844773         2.53844727        -21.2687886        0.177235462        -28.0072886        0.146640426         52.5761711
1.795e+10       0.429208689        -109.980944         2.53859877        -21.4278851         0.17733859        -28.1428851         0.14669792         52.4762984
1.7955e+10       0.428680945        -110.117229         2.53875038        -21.5870281        0.177441789        -28.2785281        0.146754961         52.3760756
1.796e+10       0.428152698         -110.25363         2.53890211        -21.7462179        0.177545058        -28.4142179        0.146811548         52.2755012
1.7965e+10        0.42762395        -110.390148         2.53905396        -21.9054547        0.177648398        -28.5499547         0.14686768         52.1745736
1.797e+10       0.427094701        -110.526783         2.53920591        -22.0647385        0.177751807        -28.6857385        0.146923355         52.0732913
1.7975e+10        0.42656495        -110.663537         2.53935798        -22.2240697        0.177855286        -28.8215697        0.146978572         51.9716527
1.798e+10       0.426034698         -110.80041         2.53951014        -22.3834483        0.177958834        -28.9574483        0.147033331         51.8696562
1.7985e+10       0.425503945        -110.937405          2.5396624        -22.5428746        0.178062452        -29.0933746         0.14708763         51.7673002
1.799e+10       0.424972692        -111.074521         2.53981476        -22.7023487        0.178166139        -29.2293487        0.147141468         51.6645832
1.7995e+10       0.424440939         -111.21176         2.53996721        -22.8618709        0.178269895        -29.3653709        0.147194844         51.5615035
1.8e+10       0.423908685        -111.349124         2.54011975        -23.0214413         0.17837372        -29.5014413        0.147247757         51.4580596
1.8005e+10       0.423400272         -111.48837         2.54035177        -23.1800986        0.178488147        -29.6377486        0.147316194         51.3678042
1.801e+10       0.422891397        -111.627752           2.540584        -23.3388037        0.178602655        -29.7741037        0.147384307         51.2771561
1.8015e+10       0.422382058        -111.767271         2.54081644        -23.4975569        0.178717245        -29.9105069        0.147452096         51.1861139
1.802e+10       0.421872258        -111.906928         2.54104909        -23.6563584        0.178831917        -30.0469584        0.147519558         51.0946761
1.8025e+10       0.421361996        -112.046724         2.54128194        -23.8152083        0.178946671        -30.1834583        0.147586693          51.002841
1.803e+10       0.420851274        -112.186662           2.541515        -23.9741068        0.179061506        -30.3200068        0.147653497         50.9106073
1.8035e+10        0.42034009        -112.326741         2.54174825        -24.1330541        0.179176422        -30.4566041        0.147719971         50.8179733
1.804e+10       0.419828447        -112.466963          2.5419817        -24.2920504        0.179291419        -30.5932504        0.147786111         50.7249374
1.8045e+10       0.419316344        -112.607329         2.54221534        -24.4510959        0.179406497        -30.7299459        0.147851916         50.6314981
1.805e+10       0.418803782        -112.747841         2.54244917        -24.6101908        0.179521656        -30.8666908        0.147917386         50.5376539
1.8055e+10       0.418290761          -112.8885         2.54268318        -24.7693353        0.179636896        -31.0034853        0.147982517         50.4434032
1.806e+10       0.417777282        -113.029307         2.54291738        -24.9285295        0.179752215        -31.1403295        0.148047309         50.3487443
1.8065e+10       0.417263346        -113.170263         2.54315176        -25.0877737        0.179867616        -31.2772237         0.14811176         50.2536757
1.807e+10       0.416748953        -113.311369         2.54338631         -25.247068        0.179983096         -31.414168        0.148175868         50.1581958
1.8075e+10       0.416234103        -113.452628         2.54362103        -25.4064127        0.180098656        -31.5511627        0.148239631         50.0623029
1.808e+10       0.415718797        -113.594039         2.54385592         -25.565808        0.180214296         -31.688208        0.148303048         49.9659955
1.8085e+10       0.415203035        -113.735605         2.54409097        -25.7252539        0.180330015        -31.8253039        0.148366118         49.8692718
1.809e+10       0.414686819        -113.877327         2.54432619        -25.8847508        0.180445814        -31.9624508        0.148428839         49.7721304
1.8095e+10       0.414170149        -114.019205         2.54456157        -26.0442988        0.180561692        -32.0996488        0.148491209         49.6745695
1.81e+10       0.413653024        -114.161242          2.5447971        -26.2038981         0.18067765        -32.2368981        0.148553226         49.5765874
1.8105e+10       0.413135447        -114.303438         2.54503278         -26.363549        0.180793686         -32.374199        0.148614889         49.4781826
1.811e+10       0.412617417        -114.445796         2.54526861        -26.5232515          0.1809098        -32.5115515        0.148676197         49.3793533
1.8115e+10       0.412098935        -114.588315         2.54550458        -26.6830059        0.181025994        -32.6489559        0.148737148         49.2800979
1.812e+10       0.411580001        -114.730998         2.54574069        -26.8428125        0.181142265        -32.7864125         0.14879774         49.1804147
1.8125e+10       0.411060617        -114.873847         2.54597694        -27.0026713        0.181258615        -32.9239213        0.148857971         49.0803019
1.813e+10       0.410540783        -115.016861         2.54621332        -27.1625826        0.181375043        -33.0614826        0.148917841         48.9797579
1.8135e+10       0.410020499        -115.160044         2.54644984        -27.3225466        0.181491548        -33.1990966        0.148977347          48.878781
1.814e+10       0.409499767        -115.303395         2.54668647        -27.4825634        0.181608131        -33.3367634        0.149036489         48.7773693
1.8145e+10       0.408978586        -115.446917         2.54692323        -27.6426334        0.181724792        -33.4744834        0.149095264         48.6755213
1.815e+10       0.408456958        -115.590611         2.54716011        -27.8027566        0.181841529        -33.6122566        0.149153671         48.5732352
1.8155e+10       0.407934883        -115.734478         2.54739711        -27.9629333        0.181958344        -33.7500833        0.149211708         48.4705091
1.816e+10       0.407412361        -115.878521         2.54763421        -28.1231637        0.182075235        -33.8879637        0.149269375         48.3673414
1.8165e+10       0.406889394        -116.022739         2.54787142        -28.2834479        0.182192202        -34.0258979        0.149326669         48.2637302
1.817e+10       0.406365983        -116.167135         2.54810874        -28.4437863        0.182309247        -34.1638863        0.149383589         48.1596738
1.8175e+10       0.405842127         -116.31171         2.54834615        -28.6041789        0.182426367        -34.3019289        0.149440134         48.0551704
1.818e+10       0.405317828        -116.456465         2.54858366        -28.7646259        0.182543563        -34.4400259        0.149496301         47.9502183
1.8185e+10       0.404793086        -116.601403         2.54882126        -28.9251277        0.182660835        -34.5781777        0.149552091         47.8448155
1.819e+10       0.404267903        -116.746524         2.54905895        -29.0856843        0.182778182        -34.7163843          0.1496075         47.7389603
1.8195e+10       0.403742278         -116.89183         2.54929672         -29.246296        0.182895604         -34.854646        0.149662528         47.6326508
1.82e+10       0.403216213        -117.037323         2.54953458         -29.406963        0.183013102         -34.992963        0.149717174         47.5258853
1.8205e+10       0.402689708        -117.183004          2.5497725        -29.5676855        0.183130674        -35.1313355        0.149771435         47.4186618
1.821e+10       0.402162765        -117.328874          2.5500105        -29.7284636        0.183248321        -35.2697636        0.149825311         47.3109785
1.8215e+10       0.401635383        -117.474935         2.55024857        -29.8892976        0.183366043        -35.4082476        0.149878799         47.2028336
1.822e+10       0.401107565        -117.621189          2.5504867        -30.0501878        0.183483838        -35.5467878          0.1499319         47.0942251
1.8225e+10        0.40057931        -117.767637         2.55072489        -30.2111342        0.183601707        -35.6853842         0.14998461         46.9851512
1.823e+10       0.400050619        -117.914281         2.55096314        -30.3721371         0.18371965        -35.8240371         0.15003693           46.87561
1.8235e+10       0.399521494        -118.061122         2.55120144        -30.5331967        0.183837667        -35.9627467        0.150088857         46.7655995
1.824e+10       0.398991935        -118.208162         2.55143978        -30.6943132        0.183955756        -36.1015132        0.150140391         46.6551179
1.8245e+10       0.398461943        -118.355403         2.55167817        -30.8554869        0.184073919        -36.2403369        0.150191529         46.5441633
1.825e+10       0.397931519        -118.502845         2.55191659        -31.0167178        0.184192154        -36.3792178        0.150242272         46.4327336
1.8255e+10       0.397400664        -118.650492         2.55215505        -31.1780063        0.184310461        -36.5181563        0.150292616         46.3208269
1.826e+10       0.396869379        -118.798343         2.55239354        -31.3393525        0.184428841        -36.6571525        0.150342561         46.2084414
1.8265e+10       0.396337664        -118.946402         2.55263206        -31.5007567        0.184547292        -36.7962067        0.150392107         46.0955749
1.827e+10       0.395805521        -119.094669          2.5528706         -31.662219        0.184665816         -36.935319         0.15044125         45.9822256
1.8275e+10       0.395272951        -119.243147         2.55310915        -31.8237396         0.18478441        -37.0744896        0.150489991         45.8683914
1.828e+10       0.394739954        -119.391837         2.55334772        -31.9853188        0.184903076        -37.2137188        0.150538329         45.7540704
1.8285e+10       0.394206531         -119.54074         2.55358629        -32.1469568        0.185021812        -37.3530068         0.15058626         45.6392604
1.829e+10       0.393672685        -119.689859         2.55382487        -32.3086538         0.18514062        -37.4923538        0.150633786         45.5239596
1.8295e+10       0.393138414        -119.839194         2.55406345        -32.4704099        0.185259497        -37.6317599        0.150680904         45.4081659
1.83e+10       0.392603722        -119.988749         2.55430202        -32.6322255        0.185378445        -37.7712255        0.150727614         45.2918771
1.8305e+10       0.392068608        -120.138524         2.55454059        -32.7941006        0.185497462        -37.9107506        0.150773913         45.1750914
1.831e+10       0.391533073        -120.288521         2.55477914        -32.9560356        0.185616549        -38.0503356        0.150819802         45.0578065
1.8315e+10        0.39099712        -120.438742         2.55501766        -33.1180306        0.185735705        -38.1899806        0.150865279         44.9400205
1.832e+10       0.390460748         -120.58919         2.55525617        -33.2800858        0.185854929        -38.3296858        0.150910343         44.8217312
1.8325e+10       0.389923959        -120.739864         2.55549465        -33.4422015        0.185974223        -38.4694515        0.150954992         44.7029365
1.833e+10       0.389386755        -120.890768         2.55573309        -33.6043778        0.186093585        -38.6092778        0.150999226         44.5836343
1.8335e+10       0.388849135        -121.041903          2.5559715        -33.7666151        0.186213015        -38.7491651        0.151043044         44.4638226
1.834e+10       0.388311102        -121.193272         2.55620986        -33.9289134        0.186332512        -38.8891134        0.151086445         44.3434991
1.8345e+10       0.387772657        -121.344875         2.55644818         -34.091273        0.186452077         -39.029123        0.151129427         44.2226617
1.835e+10         0.3872338        -121.496714         2.55668644        -34.2536941        0.186571709        -39.1691941         0.15117199         44.1013082
1.8355e+10       0.386694533        -121.648792         2.55692465         -34.416177        0.186691408         -39.309327        0.151214134         43.9794366
1.836e+10       0.386154858        -121.801111         2.55716279        -34.5787218        0.186811174        -39.4495218        0.151255856         43.8570445
1.8365e+10       0.385614775        -121.953672         2.55740087        -34.7413288        0.186931006        -39.5897788        0.151297155         43.7341299
1.837e+10       0.385074286        -122.106477         2.55763888        -34.9039981        0.187050903        -39.7300981        0.151338033         43.6106904
1.8375e+10       0.384533391        -122.259528         2.55787681        -35.0667301        0.187170866        -39.8704801        0.151378486          43.486724
1.838e+10       0.383992093        -122.412827         2.55811466        -35.2295248        0.187290895        -40.0109248        0.151418515         43.3622283
1.8385e+10       0.383450393        -122.566376         2.55835242        -35.3923826        0.187410988        -40.1514326        0.151458118         43.2372011
1.839e+10       0.382908292        -122.720176         2.55859009        -35.5553036        0.187531146        -40.2920036        0.151497295         43.1116401
1.8395e+10       0.382365791        -122.874231         2.55882766        -35.7182881        0.187651368        -40.4326381        0.151536046         42.9855432
1.84e+10       0.381822891        -123.028541         2.55906513        -35.8813362        0.187771654        -40.5733362        0.151574368         42.8589079
1.8405e+10       0.381279595         -123.18311         2.55930249        -36.0444483        0.187892004        -40.7140983        0.151612262         42.7317321
1.841e+10       0.380735904        -123.337938         2.55953974        -36.2076245        0.188012417        -40.8549245        0.151649727         42.6040134
1.8415e+10       0.380191818        -123.493027         2.55977687         -36.370865        0.188132893         -40.995815        0.151686763         42.4757495
1.842e+10        0.37964734        -123.648381         2.56001388          -36.53417        0.188253431          -41.13677        0.151723368         42.3469381
1.8425e+10       0.379102471        -123.804001         2.56025076        -36.6975398        0.188374032        -41.2777898        0.151759542         42.2175768
1.843e+10       0.378557213        -123.959888         2.56048751        -36.8609746        0.188494694        -41.4188746        0.151795284         42.0876633
1.8435e+10       0.378011566        -124.116045         2.56072412        -37.0244747        0.188615418        -41.5600247        0.151830595         41.9571952
1.844e+10       0.377465533        -124.272475         2.56096058        -37.1880401        0.188736204        -41.7012401        0.151865472         41.8261702
1.8445e+10       0.376919116        -124.429179         2.56119689        -37.3516713        0.188857049        -41.8425213        0.151899917         41.6945858
1.845e+10       0.376372315        -124.586159         2.56143305        -37.5153683        0.188977956        -41.9838683        0.151933928         41.5624396
1.8455e+10       0.375825133        -124.743417         2.56166905        -37.6791314        0.189098922        -42.1252814        0.151967505         41.4297293
1.846e+10        0.37527757        -124.900957         2.56190488        -37.8429608        0.189219948        -42.2667608        0.152000647         41.2964523
1.8465e+10        0.37472963        -125.058778         2.56214053        -38.0068568        0.189341033        -42.4083068        0.152033355         41.1626063
1.847e+10       0.374181313        -125.216885         2.56237601        -38.1708195        0.189462177        -42.5499195        0.152065627         41.0281888
1.8475e+10       0.373632621        -125.375279         2.56261131        -38.3348493         0.18958338        -42.6915993        0.152097464         40.8931973
1.848e+10       0.373083556        -125.533962         2.56284642        -38.4989463         0.18970464        -42.8333463        0.152128866         40.7576293
1.8485e+10        0.37253412        -125.692937         2.56308133        -38.6631107        0.189825959        -42.9751607        0.152159831         40.6214824
1.849e+10       0.371984315        -125.852206         2.56331604        -38.8273428        0.189947334        -43.1170428         0.15219036          40.484754
1.8495e+10       0.371434142         -126.01177         2.56355054        -38.9916428        0.190068767        -43.2589928        0.152220452         40.3474417
1.85e+10       0.370883603        -126.171633         2.56378483        -39.1560109        0.190190256        -43.4010109        0.152250109         40.2095428
1.8505e+10       0.370332701        -126.331797         2.56401891        -39.3204474        0.190311801        -43.5430974        0.152279328         40.0710548
1.851e+10       0.369781437        -126.492264         2.56425276        -39.4849525        0.190433402        -43.6852525        0.152308111         39.9319752
1.8515e+10       0.369229812        -126.653035         2.56448637        -39.6495263        0.190555059        -43.8274763        0.152336457         39.7923014
1.852e+10        0.36867783        -126.814115         2.56471976        -39.8141692         0.19067677        -43.9697692        0.152364367         39.6520307
1.8525e+10       0.368125492        -126.975504         2.56495289        -39.9788814        0.190798535        -44.1121314        0.152391839         39.5111607
1.853e+10         0.3675728        -127.137205         2.56518579        -40.1436631        0.190920355        -44.2545631        0.152418875         39.3696886
1.8535e+10       0.367019757        -127.299221         2.56541842        -40.3085145        0.191042228        -44.3970645        0.152445475         39.2276118
1.854e+10       0.366466363        -127.461555          2.5656508        -40.4734358        0.191164154        -44.5396358        0.152471638         39.0849278
1.8545e+10       0.365912622        -127.624207         2.56588291        -40.6384273        0.191286133        -44.6822773        0.152497365         38.9416338
1.855e+10       0.365358536        -127.787182         2.56611474        -40.8034893        0.191408164        -44.8249893        0.152522657         38.7977271
1.8555e+10       0.364804107        -127.950481          2.5663463        -40.9686219        0.191530247        -44.9677719        0.152547512         38.6532051
1.856e+10       0.364249336        -128.114107         2.56657757        -41.1338253        0.191652381        -45.1106253        0.152571933         38.5080651
1.8565e+10       0.363694227        -128.278062         2.56680854        -41.2990999        0.191774567        -45.2535499        0.152595918         38.3623043
1.857e+10       0.363138782        -128.442349         2.56703922        -41.4644458        0.191896802        -45.3965458        0.152619469         38.2159201
1.8575e+10       0.362583002         -128.60697         2.56726959        -41.6298633        0.192019088        -45.5396133        0.152642586         38.0689096
1.858e+10       0.362026891        -128.771928         2.56749966        -41.7953526        0.192141423        -45.6827526         0.15266527         37.9212702
1.8585e+10       0.361470451        -128.937226          2.5677294         -41.960914        0.192263807         -45.825964         0.15268752         37.7729991
1.859e+10       0.360913684        -129.102866         2.56795882        -42.1265476         0.19238624        -45.9692476        0.152709338         37.6240934
1.8595e+10       0.360356593         -129.26885          2.5681879        -42.2922538         0.19250872        -46.1126038        0.152730724         37.4745503
1.86e+10        0.35979918        -129.435182         2.56841665        -42.4580327        0.192631249        -46.2560327        0.152751679         37.3243671
1.8605e+10       0.359241447        -129.601863         2.56864505        -42.6238846        0.192753824        -46.3995346        0.152772204          37.173541
1.861e+10       0.358683398        -129.768897          2.5688731        -42.7898097        0.192876446        -46.5431097        0.152792299          37.022069
1.8615e+10       0.358125035        -129.936287          2.5691008        -42.9558082        0.192999114        -46.6867582        0.152811966         36.8699484
1.862e+10       0.357566361        -130.104034         2.56932812        -43.1218805        0.193121828        -46.8304805        0.152831204         36.7171762
1.8625e+10       0.357007378        -130.272141         2.56955508        -43.2880267        0.193244587        -46.9742767        0.152850016         36.5637496
1.863e+10       0.356448089        -130.440612         2.56978165         -43.454247         0.19336739         -47.118147        0.152868401         36.4096656
1.8635e+10       0.355888498        -130.609449         2.57000784        -43.6205418        0.193490238        -47.2620918        0.152886362         36.2549214
1.864e+10       0.355328606        -130.778655         2.57023364        -43.7869112        0.193613129        -47.4061112        0.152903899         36.0995141
1.8645e+10       0.354768417        -130.948233         2.57045904        -43.9533555        0.193736063        -47.5502055        0.152921013         35.9434406
1.865e+10       0.354207933        -131.118185         2.57068402        -44.1198749        0.193859039        -47.6943749        0.152937706         35.7866981
1.8655e+10       0.353647158        -131.288514          2.5709086        -44.2864697        0.193982057        -47.8386197        0.152953978         35.6292835
1.866e+10       0.353086094        -131.459223         2.57113275        -44.4531401        0.194105117        -47.9829401        0.152969832         35.4711938
1.8665e+10       0.352524745        -131.630315         2.57135647        -44.6198863        0.194228218        -48.1273363        0.152985267         35.3124262
1.867e+10       0.351963114        -131.801793         2.57157975        -44.7867087        0.194351359        -48.2718087        0.153000287         35.1529775
1.8675e+10       0.351401204         -131.97366          2.5718026        -44.9536073         0.19447454        -48.4163573        0.153014892         34.9928447
1.868e+10       0.350839018        -132.145919         2.57202498        -45.1205826        0.194597759        -48.5609826        0.153029084         34.8320248
1.8685e+10       0.350276559        -132.318572         2.57224692        -45.2876346        0.194721018        -48.7056846        0.153042865         34.6705147
1.869e+10       0.349713831        -132.491623         2.57246838        -45.4547637        0.194844314        -48.8504637        0.153056235         34.5083114
1.8695e+10       0.349150837        -132.665074         2.57268937        -45.6219701        0.194967648        -48.9953201        0.153069198         34.3454117
1.87e+10        0.34858758        -132.838929         2.57290988        -45.7892541        0.195091019        -49.1402541        0.153081754         34.1818126
1.8705e+10       0.348024064         -133.01319          2.5731299        -45.9566158        0.195214427        -49.2852658        0.153093905          34.017511
1.871e+10       0.347460292        -133.187861         2.57334942        -46.1240556         0.19533787        -49.4303556        0.153105654         33.8525036
1.8715e+10       0.346896268        -133.362945         2.57356844        -46.2915737        0.195461348        -49.5755237        0.153117003         33.6867875
1.872e+10       0.346331995        -133.538445         2.57378694        -46.4591703         0.19558486        -49.7207703        0.153127953         33.5203593
1.8725e+10       0.345767478        -133.714364         2.57400493        -46.6268456        0.195708407        -49.8660956        0.153138506          33.353216
1.873e+10       0.345202719        -133.890704         2.57422238           -46.7946        0.195831987           -50.0115        0.153148665         33.1853544
1.8735e+10       0.344637723         -134.06747          2.5744393        -46.9624336        0.195955599        -50.1569836        0.153158433         33.0167712
1.874e+10       0.344072494        -134.244665         2.57465568        -47.1303468        0.196079244        -50.3025468         0.15316781         32.8474633
1.8745e+10       0.343507034        -134.422291          2.5748715        -47.2983397         0.19620292        -50.4481897          0.1531768         32.6774274
1.875e+10       0.342941349        -134.600352         2.57508676        -47.4664126        0.196326627        -50.5939126        0.153185406         32.5066603
1.8755e+10       0.342375442        -134.778851         2.57530145        -47.6345658        0.196450364        -50.7397158        0.153193629         32.3351587
1.876e+10       0.341809317        -134.957792         2.57551557        -47.8027995         0.19657413        -50.8855995        0.153201472         32.1629193
1.8765e+10       0.341242978        -135.137177          2.5757291        -47.9711139        0.196697926        -51.0315639        0.153208939          31.989939
1.877e+10        0.34067643        -135.317011         2.57594204        -48.1395094        0.196821749        -51.1776094        0.153216031         31.8162142
1.8775e+10       0.340109676        -135.497295         2.57615437        -48.3079861        0.196945601        -51.3237361        0.153222752         31.6417419
1.878e+10       0.339542722        -135.678035         2.57636609        -48.4765443        0.197069479        -51.4699443        0.153229104         31.4665186
1.8785e+10        0.33897557        -135.859232          2.5765772        -48.6451843        0.197193383        -51.6162343        0.153235091          31.290541
1.879e+10       0.338408227        -136.040891         2.57678768        -48.8139063        0.197317313        -51.7626063        0.153240715         31.1138058
1.8795e+10       0.337840696        -136.223016         2.57699752        -48.9827105        0.197441268        -51.9090605         0.15324598         30.9363095
1.88e+10       0.337272981        -136.405608         2.57720671        -49.1515972        0.197565247        -52.0555972        0.153250889         30.7580489
1.8805e+10       0.336705088        -136.588673         2.57741525        -49.3205668        0.197689249        -52.2022168        0.153255445         30.5790204
1.881e+10       0.336137021        -136.772213         2.57762313        -49.4896193        0.197813274        -52.3489193        0.153259652         30.3992209
1.8815e+10       0.335568785        -136.956232         2.57783034        -49.6587551        0.197937322        -52.4957051        0.153263513         30.2186467
1.882e+10       0.335000385        -137.140733         2.57803686        -49.8279744         0.19806139        -52.6425744        0.153267031         30.0372945
1.8825e+10       0.334431825        -137.325721          2.5782427        -49.9972775        0.198185479        -52.7895275        0.153270212         29.8551608
1.883e+10        0.33386311        -137.511199         2.57844784        -50.1666647        0.198309589        -52.9365647        0.153273057         29.6722423
1.8835e+10       0.333294247        -137.697169         2.57865227        -50.3361361        0.198433717        -53.0836861        0.153275571         29.4885353
1.884e+10       0.332725238        -137.883637         2.57885599        -50.5056921        0.198557864        -53.2308921        0.153277757         29.3040366
1.8845e+10       0.332156091        -138.070606         2.57905897        -50.6753329        0.198682028        -53.3781829        0.153279621         29.1187424
1.885e+10        0.33158681        -138.258079         2.57926123        -50.8450587         0.19880621        -53.5255587        0.153281166         28.9326495
1.8855e+10         0.3310174         -138.44606         2.57946274        -51.0148699        0.198930408        -53.6730199        0.153282396         28.7457542
1.886e+10       0.330447867        -138.634554         2.57966349        -51.1847666        0.199054621        -53.8205666        0.153283315          28.558053
1.8865e+10       0.329878216        -138.823563         2.57986348        -51.3547491        0.199178849        -53.9681991        0.153283928         28.3695425
1.887e+10       0.329308453        -139.013091          2.5800627        -51.5248178         0.19930309        -54.1159178        0.153284239         28.1802189
1.8875e+10       0.328738584        -139.203143         2.58026113        -51.6949727        0.199427345        -54.2637227        0.153284253         27.9900789
1.888e+10       0.328168614        -139.393723         2.58045878        -51.8652143        0.199551612        -54.4116143        0.153283975         27.7991189
1.8885e+10       0.327598549        -139.584833         2.58065562        -52.0355427        0.199675891        -54.5595927        0.153283409         27.6073351
1.889e+10       0.327028395        -139.776478         2.58085165        -52.2059583         0.19980018        -54.7076583         0.15328256         27.4147242
1.8895e+10       0.326458158        -139.968663         2.58104686        -52.3764612         0.19992448        -54.8558112        0.153281433         27.2212824
1.89e+10       0.325887844        -140.161391         2.58124123        -52.5470518        0.200048788        -55.0040518        0.153280033         27.0270062
1.8905e+10       0.325317459        -140.354665         2.58143477        -52.7177303        0.200173105        -55.1523803        0.153278366          26.831892
1.891e+10        0.32474701        -140.548491         2.58162745        -52.8884969        0.200297429        -55.3007969        0.153276437         26.6359361
1.8915e+10       0.324176503        -140.742871         2.58181928         -53.059352         0.20042176         -55.449302         0.15327425         26.4391349
1.892e+10       0.323605944        -140.937811         2.58201023        -53.2302957        0.200546097        -55.5978957        0.153271812         26.2414847
1.8925e+10       0.323035339        -141.133315          2.5822003        -53.4013284        0.200670438        -55.7465784        0.153269129          26.042982
1.893e+10       0.322464696        -141.329385         2.58238947        -53.5724502        0.200794784        -55.8953502        0.153266205          25.843623
1.8935e+10       0.321894021        -141.526028         2.58257775        -53.7436616        0.200919133        -56.0442116        0.153263047         25.6434041
1.894e+10       0.321323321        -141.723246         2.58276511        -53.9149626        0.201043484        -56.1931626        0.153259661         25.4423216
1.8945e+10       0.320752603        -141.921044         2.58295154        -54.0863537        0.201167837        -56.3422037        0.153256052         25.2403719
1.895e+10       0.320181874        -142.119426         2.58313705         -54.257835         0.20129219         -56.491335        0.153252227         25.0375512
1.8955e+10        0.31961114        -142.318397         2.58332161        -54.4294069        0.201416543        -56.6405569        0.153248193         24.8338558
1.896e+10        0.31904041        -142.517961         2.58350521        -54.6010695        0.201540895        -56.7898695        0.153243955         24.6292821
1.8965e+10        0.31846969        -142.718121         2.58368785        -54.7728231        0.201665245        -56.9392731         0.15323952         24.4238264
1.897e+10       0.317898988        -142.918884         2.58386951        -54.9446681        0.201789591        -57.0887681        0.153234895         24.2174849
1.8975e+10       0.317328311        -143.120252         2.58405018        -55.1166047        0.201913934        -57.2383547        0.153230086         24.0102539
1.898e+10       0.316757668        -143.322231         2.58422985        -55.2886331        0.202038272        -57.3880331        0.153225101         23.8021297
1.8985e+10       0.316187064        -143.524825         2.58440851        -55.4607536        0.202162604        -57.5378036        0.153219947         23.5931086
1.899e+10        0.31561651        -143.728038         2.58458616        -55.6329664        0.202286929        -57.6876664        0.153214629         23.3831869
1.8995e+10       0.315046012        -143.931874         2.58476277        -55.8052719        0.202411247        -57.8376219        0.153209157         23.1723608
1.9e+10       0.314475579        -144.136339         2.58493833        -55.9776703        0.202535556        -57.9876703        0.153203537         22.9606265
1.9005e+10       0.313947646        -144.346027         2.58519736        -56.1483357        0.202666791        -58.1369357        0.153176805         22.7516973
1.901e+10       0.313419888        -144.556367         2.58545554        -56.3190968        0.202798033        -58.2862968         0.15314997         22.5418637
1.9015e+10       0.312892313        -144.767364         2.58571284        -56.4899538        0.202929283        -58.4357538        0.153123039         22.3311216
1.902e+10       0.312364932         -144.97902         2.58596926         -56.660907        0.203060538         -58.585307         0.15309602          22.119467
1.9025e+10       0.311837753        -145.191342         2.58622479        -56.8319567        0.203191799        -58.7349567         0.15306892         21.9068957
1.903e+10       0.311310786        -145.404334         2.58647942        -57.0031032        0.203323063        -58.8847032        0.153041748         21.6934038
1.9035e+10       0.310784041           -145.618         2.58673313        -57.1743468         0.20345433        -59.0345468        0.153014511          21.478987
1.904e+10       0.310257528        -145.832345          2.5869859        -57.3456877        0.203585599        -59.1844877        0.152987217         21.2636415
1.9045e+10       0.309731258        -146.047373         2.58723774        -57.5171262        0.203716869        -59.3345262        0.152959876         21.0473629
1.905e+10        0.30920524         -146.26309         2.58748863        -57.6886626        0.203848138        -59.4846626        0.152932496         20.8301474
1.9055e+10       0.308679485        -146.479499         2.58773854        -57.8602972        0.203979407        -59.6348972        0.152905085         20.6119907
1.906e+10       0.308154003        -146.696605         2.58798749        -58.0320303        0.204110673        -59.7852303        0.152877652         20.3928889
1.9065e+10       0.307628805        -146.914414         2.58823544        -58.2038621        0.204241936        -59.9356621        0.152850206         20.1728378
1.907e+10       0.307103902        -147.132929         2.58848239        -58.3757929        0.204373195        -60.0861929        0.152822756         19.9518334
1.9075e+10       0.306579305        -147.352155         2.58872832        -58.5478231        0.204504448        -60.2368231        0.152795311         19.7298715
1.908e+10       0.306055024        -147.572098         2.58897323        -58.7199528        0.204635695        -60.3875528        0.152767881         19.5069482
1.9085e+10       0.305531072        -147.792762          2.5892171        -58.8921824        0.204766935        -60.5383824        0.152740474         19.2830593
1.909e+10       0.305007459        -148.014152         2.58945991        -59.0645122        0.204898166        -60.6893122        0.152713102         19.0582007
1.9095e+10       0.304484197        -148.236273         2.58970166        -59.2369425        0.205029387        -60.8403425        0.152685773         18.8323685
1.91e+10       0.303961297        -148.459129         2.58994233        -59.4094734        0.205160597        -60.9914734        0.152658498         18.6055585
1.9105e+10       0.303438772        -148.682726         2.59018191        -59.5821054        0.205291795        -61.1427054        0.152631286         18.3777668
1.911e+10       0.302916634        -148.907067         2.59042038        -59.7548387         0.20542298        -61.2940387        0.152604147         18.1489893
1.9115e+10       0.302394893         -149.13216         2.59065774        -59.9276735        0.205554151        -61.4454735        0.152577093         17.9192219
1.912e+10       0.301873564        -149.358007         2.59089396        -60.1006102        0.205685307        -61.5970102        0.152550134         17.6884606
1.9125e+10       0.301352658        -149.584614         2.59112904        -60.2736491        0.205816446        -61.7486491         0.15252328         17.4567014
1.913e+10       0.300832188        -149.811987         2.59136297        -60.4467904        0.205947568        -61.9003904        0.152496543         17.2239403
1.9135e+10       0.300312167        -150.040129         2.59159572        -60.6200344         0.20607867        -62.0522344        0.152469933         16.9901734
1.914e+10       0.299792607        -150.269047         2.59182729        -60.7933814        0.206209753        -62.2041814        0.152443462         16.7553966
1.9145e+10       0.299273522        -150.498745         2.59205765        -60.9668318        0.206340814        -62.3562318         0.15241714          16.519606
1.915e+10       0.298754925        -150.729228         2.59228681        -61.1403856        0.206471853        -62.5083856         0.15239098         16.2827976
1.9155e+10       0.298236829        -150.960502         2.59251474        -61.3140434        0.206602869        -62.6606434        0.152364993         16.0449675
1.916e+10       0.297719249        -151.192571         2.59274143        -61.4878053        0.206733859        -62.8130053        0.152339191         15.8061117
1.9165e+10       0.297202197        -151.425441         2.59296686        -61.6616716        0.206864824        -62.9654716        0.152313586         15.5662264
1.917e+10       0.296685688        -151.659116         2.59319103        -61.8356427        0.206995761        -63.1180427        0.152288191         15.3253077
1.9175e+10       0.296169736        -151.893602         2.59341391        -62.0097187        0.207126669        -63.2707187        0.152263017         15.0833516
1.918e+10       0.295654355        -152.128904          2.5936355        -62.1839001        0.207257548        -63.4235001        0.152238077         14.8403545
1.9185e+10        0.29513956        -152.365028         2.59385577         -62.358187        0.207388396         -63.576387        0.152213384         14.5963123
1.919e+10       0.294625365        -152.601978         2.59407472        -62.5325798        0.207519211        -63.7293798         0.15218895         14.3512213
1.9195e+10       0.294111786         -152.83976         2.59429233        -62.7070787        0.207649993        -63.8824787         0.15216479         14.1050777
1.92e+10       0.293598837        -153.078379         2.59450858        -62.8816841        0.207780739        -64.0356841        0.152140915         13.8578778
1.9205e+10       0.293086534         -153.31784         2.59472346        -63.0563962         0.20791145        -64.1889962         0.15211734         13.6096178
1.921e+10       0.292574891        -153.558148         2.59493696        -63.2312153        0.208042123        -64.3424153        0.152094078          13.360294
1.9215e+10       0.292063926         -153.79931         2.59514906        -63.4061417        0.208172756        -64.4959417        0.152071143         13.1099028
1.922e+10       0.291553652         -154.04133         2.59535974        -63.5811757         0.20830335        -64.6495757        0.152048549         12.8584403
1.9225e+10       0.291044087        -154.284213           2.595569        -63.7563176        0.208433902        -64.8033176         0.15202631         12.6059031
1.923e+10       0.290535247        -154.527965          2.5957768        -63.9315676        0.208564411        -64.9571676        0.152004439         12.3522876
1.9235e+10       0.290027148        -154.772591         2.59598315        -64.1069261        0.208694876        -65.1111261        0.151982953           12.09759
1.924e+10       0.289519807        -155.018096         2.59618802        -64.2823933        0.208825295        -65.2651933        0.151961865          11.841807
1.9245e+10        0.28901324        -155.264487          2.5963914        -64.4579695        0.208955667        -65.4193695        0.151941191          11.584935
1.925e+10       0.288507465        -155.511768         2.59659328         -64.633655         0.20908599         -65.573655        0.151920945         11.3269706
1.9255e+10       0.288002498        -155.759945         2.59679363        -64.8094502        0.209216264        -65.7280502        0.151901143         11.0679102
1.926e+10       0.287498358        -156.009023         2.59699244        -64.9853552        0.209346486        -65.8825552          0.1518818         10.8077506
1.9265e+10       0.286995061        -156.259007         2.59718969        -65.1613703        0.209476655        -66.0371703        0.151862933         10.5464884
1.927e+10       0.286492626        -156.509904         2.59738538        -65.3374959        0.209606771        -66.1918959        0.151844556         10.2841202
1.9275e+10       0.285991071        -156.761718         2.59757948        -65.5137323         0.20973683        -66.3467323        0.151826685         10.0206427
1.928e+10       0.285490414        -157.014455         2.59777197        -65.6900797        0.209866832        -66.5016797        0.151809338         9.75605288
1.9285e+10       0.284990674        -157.268121         2.59796285        -65.8665384        0.209996776        -66.6567384         0.15179253         9.49034738
1.929e+10       0.284491868         -157.52272         2.59815209        -66.0431087        0.210126659        -66.8119087        0.151776279          9.2235231
1.9295e+10       0.283994017        -157.778259         2.59833968        -66.2197909        0.210256481        -66.9671909          0.1517606         8.95557696
1.93e+10        0.28349714        -158.034743          2.5985256        -66.3965853         0.21038624        -67.1225853        0.151745512         8.68650591
1.9305e+10       0.283001255        -158.292177         2.59870983        -66.5734921        0.210515934        -67.2780921        0.151731031         8.41630696
1.931e+10       0.282506383        -158.550567         2.59889236        -66.7505116        0.210645562        -67.4337116        0.151717174         8.14497716
1.9315e+10       0.282012543        -158.809918         2.59907317        -66.9276442        0.210775122        -67.5894442        0.151703961         7.87251363
1.932e+10       0.281519756        -159.070236         2.59925225        -67.1048902        0.210904613        -67.7452902        0.151691407         7.59891353
1.9325e+10       0.281028041        -159.331526         2.59942957        -67.2822497        0.211034033        -67.9012497        0.151679531          7.3241741
1.933e+10       0.280537419        -159.593794         2.59960512        -67.4597231        0.211163381        -68.0573231        0.151668353          7.0482926
1.9335e+10       0.280047912        -159.857046         2.59977888        -67.6373107        0.211292654        -68.2135107        0.151657889         6.77126639
1.934e+10        0.27955954        -160.121286         2.59995083        -67.8150127        0.211421852        -68.3698127        0.151648159         6.49309285
1.9345e+10       0.279072324         -160.38652         2.60012097        -67.9928295        0.211550973        -68.5262295        0.151639181         6.21376947
1.935e+10       0.278586287        -160.652754         2.60028926        -68.1707613        0.211680014        -68.6827613        0.151630976         5.93329377
1.9355e+10       0.278101449        -160.919994         2.60045569        -68.3488084        0.211808975        -68.8394084        0.151623561         5.65166334
1.936e+10       0.277617833        -161.188244         2.60062025        -68.5269712        0.211937854        -68.9961712        0.151616957         5.36887584
1.9365e+10        0.27713546        -161.457511         2.60078291        -68.7052498        0.212066649        -69.1530498        0.151611183         5.08492902
1.937e+10       0.276654355        -161.727799         2.60094366        -68.8836445        0.212195359        -69.3100445        0.151606259         4.79982068
1.9375e+10       0.276174539        -161.999114         2.60110248        -69.0621558        0.212323981        -69.4671558        0.151602205         4.51354869
1.938e+10       0.275696035        -162.271462         2.60125934        -69.2407837        0.212452515        -69.6243837        0.151599042         4.22611101
1.9385e+10       0.275218866        -162.544848         2.60141425        -69.4195287        0.212580957        -69.7817287        0.151596791         3.93750567
1.939e+10       0.274743057        -162.819277         2.60156716        -69.5983909        0.212709308        -69.9391909        0.151595471         3.64773077
1.9395e+10       0.274268631        -163.094755         2.60171807        -69.7773708        0.212837564        -70.0967708        0.151595104          3.3567845
1.94e+10       0.273795612        -163.371287         2.60186696        -69.9564685        0.212965724        -70.2544685        0.151595712         3.06466514
1.9405e+10       0.273324024        -163.648878          2.6020138        -70.1356843        0.213093787        -70.4122843        0.151597315         2.77137104
1.941e+10       0.272853893        -163.927535         2.60215859        -70.3150186         0.21322175        -70.5702186        0.151599935         2.47690064
1.9415e+10       0.272385242        -164.207262         2.60230129        -70.4944716        0.213349613        -70.7282716        0.151603594         2.18125246
1.942e+10       0.271918097        -164.488064         2.60244189        -70.6740435        0.213477372        -70.8864435        0.151608314         1.88442513
1.9425e+10       0.271452483        -164.769947         2.60258038        -70.8537348        0.213605026        -71.0447348        0.151614118         1.58641736
1.943e+10       0.270988426        -165.052916         2.60271672        -71.0335455        0.213732574        -71.2031455        0.151621027         1.28722794
1.9435e+10       0.270525952        -165.336976         2.60285091        -71.2134761        0.213860013        -71.3616761        0.151629065        0.986855767
1.944e+10       0.270065087        -165.622133         2.60298292        -71.3935268        0.213987342        -71.5203268        0.151638254        0.685299847
1.9445e+10       0.269605857        -165.908392         2.60311273        -71.5736979        0.214114559        -71.6790979        0.151648617        0.382559267
1.945e+10        0.26914829        -166.195757         2.60324033        -71.7539896        0.214241661        -71.8379896        0.151660178       0.0786332241
1.9455e+10       0.268692412        -166.484234         2.60336569        -71.9344023        0.214368648        -71.9970023         0.15167296       -0.226478986
1.946e+10       0.268238251        -166.773829         2.60348879        -72.1149362        0.214495517        -72.1561362        0.151686988       -0.532777959
1.9465e+10       0.267785834        -167.064545         2.60360961        -72.2955915        0.214622266        -72.3153915        0.151702284       -0.840264188
1.947e+10       0.267335189        -167.356388         2.60372814        -72.4763687        0.214748893        -72.4747687        0.151718873        -1.14893805
1.9475e+10       0.266886344        -167.649363         2.60384435        -72.6572678        0.214875397        -72.6342678         0.15173678        -1.45879983
1.948e+10       0.266439328        -167.943476         2.60395822        -72.8382893        0.215001775        -72.7938893        0.151756028        -1.76984967
1.9485e+10       0.265994169         -168.23873         2.60406973        -73.0194334        0.215128025        -72.9536334        0.151776643        -2.08208762
1.949e+10       0.265550897         -168.53513         2.60417886        -73.2007003        0.215254146        -73.1135003         0.15179865        -2.39551361
1.9495e+10        0.26510954        -168.832682         2.60428559        -73.3820904        0.215380135        -73.2734904        0.151822074        -2.71012744
1.95e+10       0.264670128        -169.131391          2.6043899        -73.5636038        0.215505991        -73.4336038         0.15184694        -3.02592881
1.9505e+10       0.264232691         -169.43126         2.60449176         -73.745241         0.21563171         -73.593841        0.151873273        -3.34291729
1.951e+10       0.263797259        -169.732294         2.60459116        -73.9270021        0.215757293        -73.7542021        0.151901101         -3.6610923
1.9515e+10       0.263363863        -170.034499         2.60468807        -74.1088874        0.215882735        -73.9146874        0.151930447        -3.98045318
1.952e+10       0.262932533        -170.337878         2.60478248        -74.2908972        0.216008036        -74.0752972         0.15196134        -4.30099911
1.9525e+10         0.2625033        -170.642436         2.60487436        -74.4730317        0.216133193        -74.2360317        0.151993804        -4.62272914
1.953e+10       0.262076196        -170.948177         2.60496368        -74.6552913        0.216258203        -74.3968913        0.152027867         -4.9456422
1.9535e+10       0.261651252        -171.255106         2.60505044        -74.8376761        0.216383066        -74.5578761        0.152063555        -5.26973708
1.954e+10         0.2612285        -171.563227          2.6051346        -75.0201865        0.216507779        -74.7189865        0.152100896        -5.59501244
1.9545e+10       0.260807972        -171.872545         2.60521614        -75.2028228        0.216632339        -74.8802228        0.152139916         -5.9214668
1.955e+10         0.2603897        -172.183062         2.60529505        -75.3855851        0.216756744        -75.0415851        0.152180642        -6.24909853
1.9555e+10       0.259973718        -172.494784         2.60537129        -75.5684738        0.216880993        -75.2030738        0.152223103        -6.57790588
1.956e+10       0.259560059        -172.807714         2.60544485        -75.7514891        0.217005083        -75.3646891        0.152267326        -6.90788694
1.9565e+10       0.259148754        -173.121857          2.6055157        -75.9346312        0.217129012        -75.5264312        0.152313339        -7.23903966
1.957e+10       0.258739839        -173.437215         2.60558383        -76.1179005        0.217252778        -75.6883005        0.152361169        -7.57136185
1.9575e+10       0.258333348        -173.753793          2.6056492        -76.3012972        0.217376378        -75.8502972        0.152410845        -7.90485116
1.958e+10       0.257929313        -174.071595          2.6057118        -76.4848216         0.21749981        -76.0124216        0.152462396        -8.23950509
1.9585e+10       0.257527771        -174.390623          2.6057716        -76.6684738        0.217623073        -76.1746738         0.15251585        -8.57532101
1.959e+10       0.257128754        -174.710882         2.60582858        -76.8522543        0.217746163        -76.3370543        0.152571235        -8.91229612
1.9595e+10         0.2567323        -175.032374         2.60588272        -77.0361631        0.217869078        -76.4995631        0.152628582        -9.25042745
1.96e+10       0.256338442        -175.355104         2.60593399        -77.2202007        0.217991817        -76.6622007        0.152687917        -9.58971191
1.9605e+10       0.255947217        -175.679074         2.60598237        -77.4043672        0.218114377        -76.8249672        0.152749272        -9.93014622
1.961e+10        0.25555866        -176.004286         2.60602783        -77.5886628        0.218236755        -76.9878628        0.152812675         -10.271727
1.9615e+10       0.255172808        -176.330745         2.60607036         -77.773088        0.218358949         -77.150888        0.152878156        -10.6144505
1.962e+10       0.254789696        -176.658453         2.60610992        -77.9576428        0.218480957        -77.3140428        0.152945744        -10.9583132
1.9625e+10       0.254409363        -176.987413          2.6061465        -78.1423275        0.218602776        -77.4773275         0.15301547        -11.3033111
1.963e+10       0.254031844        -177.317627         2.60618007        -78.3271425        0.218724405        -77.6407425        0.153087363          -11.64944
1.9635e+10       0.253657177        -177.649098          2.6062106        -78.5120879         0.21884584        -77.8042879        0.153161453        -11.9966959
1.964e+10         0.2532854        -177.981828         2.60623807         -78.697164        0.218967079         -77.967964        0.153237771        -12.3450741
1.9645e+10        0.25291655         -178.31582         2.60626246         -78.882371         0.21908812         -78.131771        0.153316347        -12.6945703
1.965e+10       0.252550665        -178.651075         2.60628374        -79.0677092        0.219208961        -78.2957092        0.153397212        -13.0451795
1.9655e+10       0.252187785        -178.987596         2.60630189        -79.2531788        0.219329598        -78.4597788        0.153480396         -13.396897
1.966e+10       0.251827947        -179.325384         2.60631688        -79.4387801        0.219450029        -78.6239801         0.15356593        -13.7497176
1.9665e+10        0.25147119        -179.664442         2.60632869        -79.6245133        0.219570253        -78.7883133        0.153653845         -14.103636
1.967e+10       0.251117554          179.99523         2.60633729        -79.8103787        0.219690266        -78.9527787        0.153744171        -14.4586469
1.9675e+10       0.250767078         179.653629         2.60634265        -79.9963764        0.219810066        -79.1173764        0.153836941        -14.8147446
1.968e+10       0.250419802         179.310754         2.60634476        -80.1825067         0.21992965        -79.2821067        0.153932185        -15.1719232
1.9685e+10       0.250075765         178.966605         2.60634359        -80.3687699        0.220049015        -79.4469699        0.154029935         -15.530177
1.969e+10       0.249735007          178.62118          2.6063391        -80.5551662         0.22016816        -79.6119662        0.154130221        -15.8894996
1.9695e+10        0.24939757         178.274479         2.60633128        -80.7416958        0.220287082        -79.7770958        0.154233076        -16.2498849
1.97e+10       0.249063494           177.9265          2.6063201        -80.9283589        0.220405777        -79.9423589        0.154338531        -16.6113263
1.9705e+10       0.248732819         177.577243         2.60630553        -81.1151558        0.220524244        -80.1077558        0.154446618        -16.9738171
1.971e+10       0.248405587         177.226708         2.60628754        -81.3020868         0.22064248        -80.2732868        0.154557368        -17.3373505
1.9715e+10       0.248081839         176.874894         2.60626612        -81.4891519        0.220760482        -80.4389519        0.154670814        -17.7019195
1.972e+10       0.247761617         176.521802         2.60624123        -81.6763516        0.220878247        -80.6047516        0.154786986        -18.0675169
1.9725e+10       0.247444962         176.167432         2.60621285        -81.8636859        0.220995773        -80.7706859        0.154905918        -18.4341353
1.973e+10       0.247131917         175.811783         2.60618095        -82.0511551        0.221113057        -80.9367551        0.155027642        -18.8017671
1.9735e+10       0.246822523         175.454857          2.6061455        -82.2387594        0.221230096        -81.1029594        0.155152188        -19.1704046
1.974e+10       0.246516824         175.096654         2.60610648        -82.4264991        0.221346888        -81.2692991         0.15527959        -19.5400398
1.9745e+10       0.246214861         174.737175         2.60606386        -82.6143743        0.221463429        -81.4357743         0.15540988        -19.9106648
1.975e+10       0.245916678         174.376421         2.60601762        -82.8023854        0.221579718        -81.6023854        0.155543089        -20.2822711
1.9755e+10       0.245622317         174.014393         2.60596772        -82.9905324        0.221695751        -81.7691324         0.15567925        -20.6548504
1.976e+10       0.245331822         173.651092         2.60591414        -83.1788156        0.221811526        -81.9360156        0.155818396        -21.0283941
1.9765e+10       0.245045236         173.286521         2.60585685        -83.3672352        0.221927039        -82.1030352        0.155960558        -21.4028932
1.977e+10       0.244762603         172.920681         2.60579582        -83.5557914        0.222042288        -82.2701914        0.156105769        -21.7783389
1.9775e+10       0.244483967         172.553574         2.60573103        -83.7444845         0.22215727        -82.4374845        0.156254061         -22.154722
1.978e+10        0.24420937         172.185202         2.60566245        -83.9333145        0.222271983        -82.6049145        0.156405466        -22.5320332
1.9785e+10       0.243938858         171.815568         2.60559005        -84.1222818        0.222386423        -82.7724818        0.156560018         -22.910263
1.979e+10       0.243672475         171.444674          2.6055138        -84.3113866        0.222500587        -82.9401866        0.156717747        -23.2894016
1.9795e+10       0.243410264         171.072523         2.60543367         -84.500629        0.222614472         -83.108029        0.156878686        -23.6694393
1.98e+10       0.243152271         170.699119         2.60534964        -84.6900092        0.222728077        -83.2760092        0.157042868         -24.050366
1.9805e+10       0.242898539         170.324464         2.60526168        -84.8795274        0.222841397        -83.4441274        0.157210325        -24.4321716
1.981e+10       0.242649114         169.948563         2.60516976        -85.0691838        0.222954429        -83.6123838        0.157381089        -24.8148458
1.9815e+10       0.242404041         169.571418         2.60507384        -85.2589786        0.223067172        -83.7807786        0.157555192        -25.1983779
1.982e+10       0.242163363         169.193034         2.60497391        -85.4489121        0.223179621        -83.9493121        0.157732666        -25.5827573
1.9825e+10       0.241927127         168.813416         2.60486993        -85.6389843        0.223291774        -84.1179843        0.157913543        -25.9679733
1.983e+10       0.241695377         168.432566         2.60476187        -85.8291955        0.223403628        -84.2867955        0.158097856        -26.3540147
1.9835e+10       0.241468159         168.050491         2.60464971        -86.0195458        0.223515179        -84.4557458        0.158285635        -26.7408705
1.984e+10       0.241245518         167.667195         2.60453341        -86.2100354        0.223626425        -84.6248354        0.158476914        -27.1285293
1.9845e+10       0.241027499         167.282683         2.60441294        -86.4006646        0.223737363        -84.7940646        0.158671724        -27.5169796
1.985e+10       0.240814147         166.896961         2.60428829        -86.5914334        0.223847989        -84.9634334        0.158870096          -27.90621
1.9855e+10       0.240605508         166.510033          2.6041594        -86.7823421        0.223958301        -85.1329421        0.159072062        -28.2962085
1.986e+10       0.240401627         166.121907         2.60402627        -86.9733908        0.224068295        -85.3025908        0.159277654        -28.6869632
1.9865e+10        0.24020255         165.732588         2.60388885        -87.1645797        0.224177968        -85.4723797        0.159486902        -29.0784622
1.987e+10       0.240008323         165.342083         2.60374712         -87.355909        0.224287317         -85.642309        0.159699839        -29.4706932
1.9875e+10        0.23981899         164.950397         2.60360105        -87.5473788        0.224396339        -85.8123788        0.159916496        -29.8636439
1.988e+10       0.239634597         164.557539          2.6034506        -87.7389892        0.224505031        -85.9825892        0.160136902        -30.2573018
1.9885e+10        0.23945519         164.163515         2.60329575        -87.9307406        0.224613389        -86.1529406        0.160361091        -30.6516542
1.989e+10       0.239280814         163.768332         2.60313646        -88.1226329        0.224721411        -86.3234329        0.160589091        -31.0466886
1.9895e+10       0.239111515         163.371998         2.60297271        -88.3146663        0.224829092        -86.4940663        0.160820934        -31.4423919
1.99e+10       0.238947338         162.974522         2.60280446        -88.5068411        0.224936431        -86.6648411         0.16105665        -31.8387512
1.9905e+10       0.238788328          162.57591         2.60263169        -88.6991573        0.225043423        -86.8357573         0.16129627        -32.2357534
1.991e+10        0.23863453         162.176172         2.60245436        -88.8916152        0.225150065        -87.0068152        0.161539824        -32.6333853
1.9915e+10        0.23848599         161.775316         2.60227244        -89.0842147        0.225256354        -87.1780147        0.161787341        -33.0316335
1.992e+10       0.238342753         161.373351         2.60208591        -89.2769562        0.225362288        -87.3493562        0.162038852        -33.4304846
1.9925e+10       0.238204863         160.970287         2.60189472        -89.4698397        0.225467861        -87.5208397        0.162294386        -33.8299249
1.993e+10       0.238072366         160.566132         2.60169885        -89.6628653        0.225573071        -87.6924653        0.162553973        -34.2299409
1.9935e+10       0.237945306         160.160896         2.60149827        -89.8560333        0.225677916        -87.8642333        0.162817641        -34.6305188
1.994e+10       0.237823728         159.754589         2.60129294        -90.0493436         0.22578239        -88.0361436        0.163085421        -35.0316447
1.9945e+10       0.237707677         159.347223         2.60108284        -90.2427965        0.225886492        -88.2081965         0.16335734        -35.4333046
1.995e+10       0.237597196         158.938806         2.60086793        -90.4363921        0.225990217        -88.3803921        0.163633427        -35.8354845
1.9955e+10        0.23749233         158.529349         2.60064818        -90.6301305        0.226093562        -88.5527305        0.163913711        -36.2381704
1.996e+10       0.237393123         158.118864         2.60042356        -90.8240117        0.226196523        -88.7252117         0.16419822        -36.6413479
1.9965e+10       0.237299619         157.707362         2.60019403         -91.018036        0.226299099         -88.897836        0.164486982        -37.0450028
1.997e+10        0.23721186         157.294855         2.59995957        -91.2122035        0.226401283        -89.0706035        0.164780025        -37.4491207
1.9975e+10       0.237129891         156.881353         2.59972015        -91.4065142        0.226503075        -89.2435142        0.165077375        -37.8536872
1.998e+10       0.237053755          156.46687         2.59947572        -91.6009682        0.226604469        -89.4165682        0.165379061        -38.2586878
1.9985e+10       0.236983494         156.051417         2.59922625        -91.7955658        0.226705462        -89.5897658        0.165685108         -38.664108
1.999e+10       0.236919152         155.635007         2.59897173        -91.9903068        0.226806051        -89.7631068        0.165995545        -39.0699331
1.9995e+10        0.23686077         155.217652          2.5987121        -92.1851916        0.226906232        -89.9365916        0.166310396        -39.4761486
2e+10        0.23680839         154.799366         2.59844735          -92.38022        0.227006002          -90.11022         0.16662969        -39.8827396
2.0005e+10       0.236815318         154.382085         2.59826617        -92.5767981        0.227118356        -90.2857481        0.166986512        -40.2898118
2.001e+10       0.236828384         153.963982         2.59808002        -92.7735265        0.227230314        -90.4614265        0.167347905        -40.6971679
2.0015e+10       0.236847627         153.545072         2.59788886        -92.9704053        0.227341872        -90.6372553        0.167713894        -41.1047933
2.002e+10       0.236873086         153.125368         2.59769264        -93.1674345        0.227453027        -90.8132345        0.168084504        -41.5126734
2.0025e+10         0.2369048         152.704886         2.59749134        -93.3646144        0.227563775        -90.9893644        0.168459757        -41.9207935
2.003e+10       0.236942805         152.283639         2.59728492        -93.5619451        0.227674113        -91.1656451        0.168839679        -42.3291391
2.0035e+10        0.23698714         151.861644         2.59707335        -93.7594266        0.227784035        -91.3420766        0.169224291        -42.7376954
2.004e+10       0.237037842         151.438915         2.59685659        -93.9570591        0.227893539        -91.5186591        0.169613618        -43.1464479
2.0045e+10       0.237094947         151.015467          2.5966346        -94.1548427        0.228002621        -91.6953927        0.170007682         -43.555382
2.005e+10       0.237158492         150.591316         2.59640735        -94.3527776        0.228111276        -91.8722776        0.170406505         -43.964483
2.0055e+10       0.237228512         150.166478          2.5961748        -94.5508637        0.228219501        -92.0493137         0.17081011        -44.3737365
2.006e+10       0.237305044         149.740968         2.59593692        -94.7491012        0.228327292        -92.2265012        0.171218517         -44.783128
2.0065e+10       0.237388121         149.314803         2.59569367        -94.9474902        0.228434645        -92.4038402         0.17163175        -45.1926428
2.007e+10       0.237477779         148.887998         2.59544502        -95.1460309        0.228541556        -92.5813309        0.172049828        -45.6022665
2.0075e+10       0.237574052         148.460571         2.59519092        -95.3447232         0.22864802        -92.7589732        0.172472772        -46.0119848
2.008e+10       0.237676972         148.032537         2.59493135        -95.5435672        0.228754035        -92.9367672        0.172900603        -46.4217832
2.0085e+10       0.237786574         147.603913         2.59466626        -95.7425632        0.228859596        -93.1147132        0.173333341        -46.8316474
2.009e+10       0.237902889         147.174716         2.59439562         -95.941711        0.228964699         -93.292811        0.173771004        -47.2415632
2.0095e+10        0.23802595         146.744964          2.5941194        -96.1410108         0.22906934        -93.4710608        0.174213614        -47.6515162
2.01e+10       0.238155788         146.314672         2.59383755        -96.3404627        0.229173514        -93.6494627        0.174661188        -48.0614925
2.0105e+10       0.238292435         145.883859         2.59355004        -96.5400667        0.229277219        -93.8280167        0.175113745        -48.4714778
2.011e+10       0.238435919         145.452542         2.59325683         -96.739823        0.229380449         -94.006723        0.175571303        -48.8814581
2.0115e+10       0.238586273         145.020738         2.59295788        -96.9397314          0.2294832        -94.1855814         0.17603388        -49.2914196
2.012e+10       0.238743524         144.588465         2.59265317        -97.1397922         0.22958547        -94.3645922        0.176501494        -49.7013483
2.0125e+10       0.238907702          144.15574         2.59234265        -97.3400053        0.229687252        -94.5437553        0.176974161        -50.1112304
2.013e+10       0.239078834         143.722581         2.59202628        -97.5403707        0.229788544        -94.7230707        0.177451899        -50.5210523
2.0135e+10       0.239256948         143.289007         2.59170402        -97.7408887        0.229889341        -94.9025387        0.177934722        -50.9308003
2.014e+10       0.239442072         142.855035         2.59137585         -97.941559        0.229989638         -95.082159        0.178422649        -51.3404608
2.0145e+10       0.239634231         142.420683         2.59104171        -98.1423819        0.230089433        -95.2619319        0.178915693        -51.7500205
2.015e+10       0.239833452         141.985969         2.59070158        -98.3433573        0.230188719        -95.4418573         0.17941387        -52.1594661
2.0155e+10       0.240039759         141.550912         2.59035542        -98.5444852        0.230287494        -95.6219352        0.179917194        -52.5687842
2.016e+10       0.240253177          141.11553         2.59000318        -98.7457657        0.230385753        -95.8021657        0.180425681        -52.9779618
2.0165e+10       0.240473729         140.679841         2.58964484        -98.9471988        0.230483491        -95.9825488        0.180939344        -53.3869859
2.017e+10        0.24070144         140.243863         2.58928034        -99.1487844        0.230580705        -96.1630844        0.181458197        -53.7958435
2.0175e+10       0.240936331         139.807616         2.58890966        -99.3505226         0.23067739        -96.3437726        0.181982252        -54.2045219
2.018e+10       0.241178425         139.371117         2.58853276        -99.5524134        0.230773541        -96.5246134        0.182511523        -54.6130084
2.0185e+10       0.241427742         138.934385          2.5881496        -99.7544568        0.230869155        -96.7056068        0.183046022        -55.0212904
2.019e+10       0.241684304         138.497438         2.58776013        -99.9566528        0.230964228        -96.8867528        0.183585761        -55.4293555
2.0195e+10        0.24194813         138.060296         2.58736433        -100.159001        0.231058753        -97.0680513        0.184130752        -55.8371914
2.02e+10       0.242219239         137.622976         2.58696215        -100.361502        0.231152729        -97.2495023        0.184681005         -56.244786
2.0205e+10        0.24249765         137.185497         2.58655355        -100.564156        0.231246149        -97.4311058        0.185236532        -56.6521272
2.021e+10       0.242783381         136.747878          2.5861385        -100.766962         0.23133901        -97.6128618        0.185797342        -57.0592031
2.0215e+10       0.243076449         136.310138         2.58571696         -100.96992        0.231431307        -97.7947703        0.186363447        -57.4660019
2.022e+10        0.24337687         135.872294         2.58528889        -101.173031        0.231523036        -97.9768311        0.186934854        -57.8725121
2.0225e+10        0.24368466         135.434365         2.58485425        -101.376294        0.231614192        -98.1590443        0.187511575         -58.278722
2.023e+10       0.243999834          134.99637           2.584413         -101.57971        0.231704771        -98.3414098        0.188093617        -58.6846204
2.0235e+10       0.244322407         134.558327          2.5839651        -101.783278        0.231794768        -98.5239276        0.188680989        -59.0901961
2.024e+10       0.244652392         134.120255         2.58351052        -101.986998         0.23188418        -98.7065975        0.189273698         -59.495438
2.0245e+10       0.244989802         133.682172         2.58304921         -102.19087        0.231973001        -98.8894196        0.189871753        -59.9003353
2.025e+10       0.245334649         133.244096         2.58258114        -102.394894        0.232061226        -99.0723937        0.190475161         -60.304877
2.0255e+10       0.245686944         132.806045         2.58210627         -102.59907        0.232148853        -99.2555198        0.191083928        -60.7090528
2.026e+10       0.246046699         132.368038         2.58162456        -102.803398        0.232235875        -99.4387978         0.19169806         -61.112852
2.0265e+10       0.246413924         131.930093         2.58113596        -103.007878        0.232322288        -99.6222276        0.192317565        -61.5162645
2.027e+10       0.246788627         131.492228         2.58064045        -103.212509        0.232408089        -99.8058091        0.192942446          -61.91928
2.0275e+10       0.247170817          131.05446         2.58013798        -103.417292        0.232493271        -99.9895422         0.19357271        -62.3218886
2.028e+10       0.247560502         130.616807         2.57962851        -103.622227        0.232577831        -100.173427        0.194208362        -62.7240805
2.0285e+10       0.247957689         130.179288           2.579112        -103.827313        0.232661765        -100.357463        0.194849405        -63.1258461
2.029e+10       0.248362385          129.74192         2.57858842         -104.03255        0.232745067         -100.54165        0.195495844        -63.5271758
2.0295e+10       0.248774594          129.30472         2.57805772        -104.237939        0.232827732        -100.725989        0.196147682        -63.9280602
2.03e+10       0.249194323         128.867705         2.57751987        -104.443478        0.232909757        -100.910478        0.196804923        -64.3284903
2.0305e+10       0.249621575         128.430894         2.57697483        -104.649169        0.232991137        -101.095119        0.197467569        -64.7284569
2.031e+10       0.250056354         127.994303         2.57642255         -104.85501        0.233071867         -101.27991        0.198135622        -65.1279514
2.0315e+10       0.250498662         127.557948         2.57586301        -105.061002        0.233151942        -101.464852        0.198809086        -65.5269649
2.032e+10       0.250948502         127.121848         2.57529615        -105.267144        0.233231357        -101.649944        0.199487962        -65.9254889
2.0325e+10       0.251405874         126.686019         2.57472194        -105.473437        0.233310109        -101.835187         0.20017225        -66.3235152
2.033e+10       0.251870779         126.250477         2.57414034         -105.67988        0.233388192         -102.02058        0.200861952        -66.7210355
2.0335e+10       0.252343218         125.815239         2.57355131        -105.886473        0.233465602        -102.206123        0.201557068        -67.1180418
2.034e+10       0.252823188         125.380321         2.57295482        -106.093216        0.233542334        -102.391816        0.202257599        -67.5145263
2.0345e+10        0.25331069         124.945739         2.57235082        -106.300108        0.233618383        -102.577658        0.202963544        -67.9104812
2.035e+10       0.253805719         124.511509         2.57173927         -106.50715        0.233693745         -102.76365        0.203674902         -68.305899
2.0355e+10       0.254308274         124.077647         2.57112014        -106.714341        0.233768414        -102.949791        0.204391674        -68.7007724
2.036e+10       0.254818351         123.644168         2.57049338        -106.921681        0.233842387        -103.136081        0.205113856        -69.0950943
2.0365e+10       0.255335945         123.211088         2.56985896         -107.12917        0.233915658         -103.32252        0.205841448        -69.4888575
2.037e+10       0.255861051         122.778423         2.56921683        -107.336808        0.233988223        -103.509108        0.206574448        -69.8820552
2.0375e+10       0.256393663         122.346186         2.56856697        -107.544594        0.234060076        -103.695844        0.207312852        -70.2746807
2.038e+10       0.256933775         121.914393         2.56790932        -107.752528        0.234131214        -103.882728        0.208056659        -70.6667275
2.0385e+10        0.25748138         121.483059         2.56724386        -107.960611        0.234201632        -104.069761        0.208805865        -71.0581892
2.039e+10       0.258036469         121.052199         2.56657053        -108.168841        0.234271324        -104.256941        0.209560466        -71.4490597
2.0395e+10       0.258599035         120.621825         2.56588931        -108.377219        0.234340285        -104.444269        0.210320459        -71.8393328
2.04e+10       0.259169068         120.191953         2.56520015        -108.585743        0.234408512        -104.631743        0.211085839        -72.2290027
2.0405e+10       0.259746558         119.762596         2.56450301        -108.794415        0.234475999        -104.819365        0.211856602        -72.6180636
2.041e+10       0.260331495         119.333768         2.56379786        -109.003234        0.234542742        -105.007134        0.212632743        -73.0065101
2.0415e+10       0.260923868         118.905482         2.56308465        -109.212199        0.234608736        -105.195049        0.213414256        -73.3943367
2.042e+10       0.261523664         118.477752         2.56236336        -109.421311        0.234673975        -105.383111        0.214201136        -73.7815381
2.0425e+10       0.262130871         118.050591         2.56163393        -109.630568        0.234738456        -105.571318        0.214993377        -74.1681093
2.043e+10       0.262745477          117.62401         2.56089633        -109.839971        0.234802173        -105.759671        0.215790973        -74.5540453
2.0435e+10       0.263367467         117.198024         2.56015053        -110.049519        0.234865122        -105.948169        0.216593916        -74.9393415
2.044e+10       0.263996827         116.772643         2.55939648        -110.259213        0.234927297        -106.136813        0.217402201         -75.323993
2.0445e+10       0.264633542         116.347881         2.55863414        -110.469051        0.234988694        -106.325601        0.218215818        -75.7079956
2.045e+10       0.265277597          115.92375         2.55786348        -110.679033        0.235049309        -106.514533        0.219034762        -76.0913447
2.0455e+10       0.265928976         115.500259         2.55708446         -110.88916        0.235109135         -106.70361        0.219859024        -76.4740364
2.046e+10       0.266587661         115.077423         2.55629704        -111.099431         0.23516817        -106.892831        0.220688595        -76.8560665
2.0465e+10       0.267253635          114.65525         2.55550119        -111.309844        0.235226407        -107.082194        0.221523466        -77.2374312
2.047e+10       0.267926881         114.233753         2.55469685        -111.520401        0.235283842        -107.271701         0.22236363        -77.6181268
2.0475e+10       0.268607379         113.812942         2.55388401        -111.731101         0.23534047        -107.461351        0.223209077        -77.9981496
2.048e+10       0.269295112         113.392828         2.55306261        -111.941943        0.235396286        -107.651143        0.224059796        -78.3774962
2.0485e+10       0.269990058         112.973421         2.55223263        -112.152927        0.235451285        -107.841077        0.224915779        -78.7561633
2.049e+10       0.270692199          112.55473         2.55139401        -112.364053        0.235505464        -108.031153        0.225777014        -79.1341478
2.0495e+10       0.271401512         112.136767         2.55054674         -112.57532        0.235558816         -108.22137        0.226643491        -79.5114466
2.05e+10       0.272117978          111.71954         2.54969076        -112.786728        0.235611337        -108.411728          0.2275152        -79.8880568
2.0505e+10       0.272841573         111.303058         2.54882604        -112.998276        0.235663022        -108.602226         0.22839213        -80.2639756
2.051e+10       0.273572276         110.887331         2.54795255        -113.209965        0.235713867        -108.792865        0.229274268        -80.6392006
2.0515e+10       0.274310064         110.472368         2.54707025        -113.421793        0.235763866        -108.983643        0.230161603         -81.013729
2.052e+10       0.275054914         110.058177         2.54617909         -113.63376        0.235813015         -109.17456        0.231054123        -81.3875586
2.0525e+10       0.275806801         109.644767         2.54527905        -113.845866        0.235861309        -109.365616        0.231951816        -81.7606872
2.053e+10       0.276565702         109.232146         2.54437009        -114.058111        0.235908744        -109.556811        0.232854669        -82.1331125
2.0535e+10       0.277331591         108.820322         2.54345217        -114.270494        0.235955313        -109.748144        0.233762669        -82.5048327
2.054e+10       0.278104443         108.409303         2.54252525        -114.483014        0.236001014        -109.939614        0.234675803        -82.8758459
2.0545e+10       0.278884232         107.999095          2.5415893        -114.695671         0.23604584        -110.131221        0.235594057        -83.2461503
2.055e+10       0.279670932         107.589707         2.54064428        -114.908465        0.236089787        -110.322965        0.236517417        -83.6157442
2.0555e+10       0.280464517         107.181145         2.53969016        -115.121395         0.23613285        -110.514845         0.23744587        -83.9846262
2.056e+10       0.281264959         106.773417          2.5387269         -115.33446        0.236175025         -110.70686        0.238379402        -84.3527948
2.0565e+10       0.282072231         106.366529         2.53775447        -115.547661        0.236216307        -110.899011        0.239317996        -84.7202488
2.057e+10       0.282886304         105.960486         2.53677282        -115.760997        0.236256691        -111.091297         0.24026164         -85.086987
2.0575e+10        0.28370715         105.555297         2.53578193        -115.974467        0.236296172        -111.283717        0.241210316        -85.4530084
2.058e+10        0.28453474         105.150965         2.53478176         -116.18807        0.236334746         -111.47627        0.242164011        -85.8183118
2.0585e+10       0.285369045         104.747498         2.53377228        -116.401807        0.236372408        -111.668957        0.243122708        -86.1828966
2.059e+10       0.286210036           104.3449         2.53275344        -116.615676        0.236409152        -111.861776        0.244086391        -86.5467619
2.0595e+10       0.287057682         103.943178         2.53172522        -116.829677        0.236444975        -112.054727        0.245055045        -86.9099071
2.06e+10       0.287911952         103.542335         2.53068759         -117.04381        0.236479872         -112.24781        0.246028651        -87.2723316
2.0605e+10       0.288772816         103.142378          2.5296405        -117.258074        0.236513838        -112.441024        0.247007195         -87.634035
2.061e+10       0.289640243          102.74331         2.52858392        -117.472469        0.236546868        -112.634369        0.247990659        -87.9950169
2.0615e+10       0.290514201         102.345136         2.52751783        -117.686993        0.236578958        -112.827843        0.248979025         -88.355277
2.062e+10       0.291394658          101.94786         2.52644218        -117.901647        0.236610103        -113.021447        0.249972276        -88.7148152
2.0625e+10       0.292281581         101.551487         2.52535695        -118.116429        0.236640299        -113.215179        0.250970394        -89.0736313
2.063e+10       0.293174939          101.15602         2.52426209         -118.33134         0.23666954         -113.40904        0.251973362        -89.4317254
2.0635e+10       0.294074698         100.761464         2.52315759        -118.546378        0.236697822        -113.603028        0.252981161        -89.7890976
2.064e+10       0.294980825         100.367821          2.5220434        -118.761544        0.236725141        -113.797144        0.253993772        -90.1457479
2.0645e+10       0.295893286         99.9750943         2.52091949        -118.976836        0.236751492        -113.991386        0.255011177        -90.5016768
2.065e+10       0.296812047          99.583288         2.51978584        -119.192253         0.23677687        -114.185753        0.256033357        -90.8568844
2.0655e+10       0.297737074         99.1924047          2.5186424        -119.407796        0.236801272        -114.380246        0.257060292        -91.2113712
2.066e+10       0.298668333         98.8024471         2.51748916        -119.623463        0.236824691        -114.574863        0.258091964        -91.5651378
2.0665e+10       0.299605789         98.4134177         2.51632607        -119.839254        0.236847124        -114.769604        0.259128352        -91.9181846
2.067e+10       0.300549406          98.025319          2.5151531        -120.055168        0.236868567        -114.964468        0.260169437        -92.2705122
2.0675e+10       0.301499149         97.6381532         2.51397023        -120.271205        0.236889014        -115.159455        0.261215198        -92.6221215
2.068e+10       0.302454982         97.2519224         2.51277743        -120.487364        0.236908462        -115.354564        0.262265615        -92.9730131
2.0685e+10        0.30341687         96.8666285         2.51157465        -120.703644        0.236926905        -115.549794        0.263320668        -93.3231879
2.069e+10       0.304384776         96.4822731         2.51036189        -120.920044         0.23694434        -115.745144        0.264380335        -93.6726468
2.0695e+10       0.305358664         96.0988579          2.5091391        -121.136565        0.236960762        -115.940615        0.265444597        -94.0213908
2.07e+10       0.306338497         95.7163843         2.50790625        -121.353204        0.236976166        -116.136204         0.26651343         -94.369421
2.0705e+10       0.307324237         95.3348535         2.50666332        -121.569962        0.236990549        -116.331912        0.267586815        -94.7167383
2.071e+10       0.308315849         94.9542667         2.50541028        -121.786838        0.237003905        -116.527738        0.268664728         -95.063344
2.0715e+10       0.309313294         94.5746247         2.50414709        -122.003831        0.237016231        -116.723681        0.269747149        -95.4092393
2.072e+10       0.310316535         94.1959284         2.50287374         -122.22094        0.237027522         -116.91974        0.270834056        -95.7544254
2.0725e+10       0.311325533         93.8181784         2.50159019        -122.438164        0.237037774        -117.115914        0.271925425        -96.0989037
2.073e+10       0.312340251         93.4413753         2.50029641        -122.655504        0.237046983        -117.312204        0.273021235        -96.4426755
2.0735e+10       0.313360651         93.0655194         2.49899239        -122.872957        0.237055144        -117.508607        0.274121463        -96.7857423
2.074e+10       0.314386693         92.6906109         2.49767808        -123.090524        0.237062253        -117.705124        0.275226085        -97.1281055
2.0745e+10        0.31541834           92.31665         2.49635347        -123.308203        0.237068306        -117.901753         0.27633508        -97.4697666
2.075e+10       0.316455551         91.9436367         2.49501853        -123.525994        0.237073299        -118.098494        0.277448422        -97.8107273
2.0755e+10       0.317498289         91.5715707         2.49367323        -123.743896        0.237077227        -118.295346        0.278566089        -98.1509891
2.076e+10       0.318546514         91.2004518         2.49231754        -123.961908        0.237080087        -118.492308        0.279688058        -98.4905537
2.0765e+10       0.319600186         90.8302797         2.49095145        -124.180029        0.237081874        -118.689379        0.280814304        -98.8294228
2.077e+10       0.320659266         90.4610537         2.48957493        -124.398259        0.237082584        -118.886559        0.281944803        -99.1675981
2.0775e+10       0.321723713         90.0927733         2.48818794        -124.616596        0.237082213        -119.083846         0.28307953        -99.5050814
2.078e+10       0.322793489         89.7254377         2.48679048        -124.835041        0.237080758        -119.281241        0.284218462        -99.8418745
2.0785e+10       0.323868553          89.359046         2.48538251        -125.053591        0.237078214        -119.478741        0.285361574        -100.177979
2.079e+10       0.324948864         88.9935972         2.48396401        -125.272247        0.237074577        -119.676347         0.28650884        -100.513397
2.0795e+10       0.326034382         88.6290904         2.48253496        -125.491007        0.237069843        -119.874057        0.287660237        -100.848131
2.08e+10       0.327125067         88.2655243         2.48109533         -125.70987        0.237064009         -120.07187        0.288815737        -101.182182
2.0805e+10       0.328220878         87.9028976          2.4796451        -125.928836         0.23705707        -120.269786        0.289975317        -101.515553
2.081e+10       0.329321774          87.541209         2.47818426        -126.147904        0.237049023        -120.467804        0.291138951        -101.848245
2.0815e+10       0.330427714         87.1804569         2.47671277        -126.367072        0.237039863        -120.665922        0.292306612         -102.18026
2.082e+10       0.331538658         86.8206399         2.47523063        -126.586341        0.237029588        -120.864141        0.293478275        -102.511601
2.0825e+10       0.332654563         86.4617563          2.4737378        -126.805708        0.237018193        -121.062458        0.294653914         -102.84227
2.083e+10       0.333775388         86.1038043         2.47223426        -127.025174        0.237005674        -121.260874        0.295833502        -103.172268
2.0835e+10       0.334901093         85.7467822         2.47072001        -127.244737        0.236992028        -121.459387        0.297017013        -103.501598
2.084e+10       0.336031634         85.3906879         2.46919501        -127.464396        0.236977252        -121.657996        0.298204421        -103.830262
2.0845e+10       0.337166972         85.0355196         2.46765925         -127.68415        0.236961341          -121.8567        0.299395698        -104.158262
2.085e+10       0.338307064         84.6812751         2.46611271        -127.903999        0.236944291        -122.055499        0.300590818          -104.4856
2.0855e+10       0.339451868         84.3279524         2.46455537        -128.123941        0.236926101        -122.254391        0.301789754        -104.812279
2.086e+10       0.340601342         83.9755492         2.46298721        -128.343976        0.236906765        -122.453376        0.302992478        -105.138301
2.0865e+10       0.341755445         83.6240632         2.46140822        -128.564102        0.236886281        -122.652452        0.304198962        -105.463668
2.087e+10       0.342914133         83.2734921         2.45981838        -128.784319        0.236864644        -122.851619         0.30540918        -105.788382
2.0875e+10       0.344077366         82.9238335         2.45821767        -129.004625        0.236841852        -123.050875        0.306623104        -106.112446
2.088e+10         0.3452451         82.5750849         2.45660608         -129.22502        0.236817902         -123.25022        0.307840705        -106.435862
2.0885e+10       0.346417293         82.2272438         2.45498358        -129.445502        0.236792789        -123.449652        0.309061955        -106.758632
2.089e+10       0.347593903         81.8803075         2.45335018        -129.666071        0.236766511        -123.649171        0.310286827        -107.080758
2.0895e+10       0.348774887         81.5342735         2.45170584        -129.886725        0.236739064        -123.848775        0.311515292        -107.402244
2.09e+10       0.349960202          81.189139         2.45005056        -130.107464        0.236710445        -124.048464        0.312747321         -107.72309
2.0905e+10       0.351149807         80.8449013         2.44838433        -130.328286        0.236680651        -124.248236        0.313982887          -108.0433
2.091e+10       0.352343658         80.5015575         2.44670712        -130.549191        0.236649679        -124.448091        0.315221959        -108.362876
2.0915e+10       0.353541712         80.1591049         2.44501893        -130.770177        0.236617526        -124.648027        0.316464509        -108.681821
2.092e+10       0.354743927         79.8175404         2.44331974        -130.991244        0.236584188        -124.848044        0.317710508        -109.000136
2.0925e+10        0.35595026         79.4768612         2.44160955        -131.212389        0.236549663        -125.048139        0.318959928        -109.317823
2.093e+10       0.357160668         79.1370643         2.43988834        -131.433613        0.236513947        -125.248313        0.320212737        -109.634887
2.0935e+10       0.358375108         78.7981466         2.43815609        -131.654914        0.236477039        -125.448564        0.321468908        -109.951328
2.094e+10       0.359593536         78.4601051         2.43641281        -131.876291        0.236438934        -125.648891        0.322728409        -110.267149
2.0945e+10       0.360815911         78.1229367         2.43465847        -132.097743         0.23639963        -125.849293        0.323991213        -110.582352
2.095e+10       0.362042188         77.7866382         2.43289308        -132.319269        0.236359125        -126.049769        0.325257288        -110.896941
2.0955e+10       0.363272325         77.4512065         2.43111661        -132.540867        0.236317415        -126.250317        0.326526605        -111.210917
2.096e+10       0.364506279         77.1166384         2.42932907        -132.762537        0.236274497        -126.450937        0.327799133        -111.524282
2.0965e+10       0.365744006         76.7829306         2.42753045        -132.984277         0.23623037        -126.651627        0.329074842        -111.837039
2.097e+10       0.366985463         76.4500798         2.42572073        -133.206087         0.23618503        -126.852387        0.330353702        -112.149191
2.0975e+10       0.368230607         76.1180829         2.42389991        -133.427965        0.236138476        -127.053215        0.331635683         -112.46074
2.098e+10       0.369479394         75.7869364         2.42206798         -133.64991        0.236090704         -127.25411        0.332920753        -112.771688
2.0985e+10       0.370731783         75.4566371         2.42022494        -133.871921        0.236041711        -127.455071        0.334208882        -113.082038
2.099e+10       0.371987728         75.1271816         2.41837079        -134.093996        0.235991497        -127.656096        0.335500039        -113.391791
2.0995e+10       0.373247187         74.7985665         2.41650551        -134.316135        0.235940057        -127.857185        0.336794194        -113.700951
2.1e+10       0.374510117         74.4707884         2.41462911        -134.538336        0.235887391        -128.058336        0.338091314        -114.009519
2.1005e+10       0.375818638         74.1528663         2.41277846        -134.760348        0.235842458        -128.260848         0.33942869        -114.315504
2.101e+10       0.377130359         73.8357238         2.41091654        -134.982431        0.235796279        -128.463431        0.340768958        -114.620914
2.1015e+10       0.378445238         73.5193571         2.40904335        -135.204584        0.235748851        -128.666084        0.342112086        -114.925753
2.102e+10       0.379763235         73.2037627         2.40715887        -135.426806        0.235700171        -128.868806        0.343458043        -115.230023
2.1025e+10       0.381084306         72.8889367         2.40526311        -135.649096        0.235650236        -129.071596        0.344806796        -115.533727
2.103e+10        0.38240841         72.5748755         2.40335605        -135.871451        0.235599044        -129.274451        0.346158313        -115.836867
2.1035e+10       0.383735506         72.2615754          2.4014377        -136.093873        0.235546593        -129.477373        0.347512563        -116.139446
2.104e+10       0.385065553         71.9490326         2.39950805        -136.316358         0.23549288        -129.680358        0.348869512        -116.441466
2.1045e+10       0.386398507         71.6372434         2.39756709        -136.538905        0.235437903        -129.883405        0.350229129         -116.74293
2.105e+10       0.387734328         71.3262043         2.39561483        -136.761514        0.235381659        -130.086514        0.351591381         -117.04384
2.1055e+10       0.389072974         71.0159114         2.39365126        -136.984183        0.235324147        -130.289683        0.352956236        -117.344199
2.106e+10       0.390414403         70.7063611         2.39167638        -137.206912        0.235265364        -130.492912        0.354323661        -117.644009
2.1065e+10       0.391758574         70.3975498         2.38969019        -137.429697        0.235205309        -130.696197        0.355693622        -117.943272
2.107e+10       0.393105445         70.0894739         2.38769269         -137.65254        0.235143978         -130.89954        0.357066089        -118.241991
2.1075e+10       0.394454974         69.7821295         2.38568388        -137.875437         0.23508137        -131.102937        0.358441026        -118.540169
2.108e+10       0.395807119         69.4755133         2.38366377        -138.098388        0.235017484        -131.306388        0.359818402        -118.837807
2.1085e+10       0.397161839         69.1696214         2.38163234        -138.321391        0.234952316        -131.509891        0.361198184        -119.134908
2.109e+10       0.398519093         68.8644503         2.37958961        -138.544446        0.234885867        -131.713446        0.362580337        -119.431475
2.1095e+10       0.399878838         68.5599965         2.37753558         -138.76755        0.234818132         -131.91705        0.363964829        -119.727509
2.11e+10       0.401241033         68.2562563         2.37547024        -138.990703        0.234749112        -132.120703        0.365351627        -120.023013
2.1105e+10       0.402605637         67.9532262         2.37339362        -139.213903        0.234678804        -132.324403        0.366740696         -120.31799
2.111e+10       0.403972607         67.6509027          2.3713057        -139.437149        0.234607206        -132.528149        0.368132004        -120.612441
2.1115e+10       0.405341903         67.3492821          2.3692065         -139.66044        0.234534318         -132.73194        0.369525517        -120.906368
2.112e+10       0.406713482          67.048361         2.36709601        -139.883774        0.234460137        -132.935774        0.370921201        -121.199775
2.1125e+10       0.408087304          66.748136         2.36497426        -140.107149        0.234384662        -133.139649        0.372319022        -121.492663
2.113e+10       0.409463327         66.4486034         2.36284123        -140.330565        0.234307893        -133.343565        0.373718947        -121.785034
2.1135e+10       0.410841508         66.1497599         2.36069695         -140.55402        0.234229826         -133.54752        0.375120941         -122.07689
2.114e+10       0.412221808          65.851602         2.35854142        -140.777513        0.234150462        -133.751513        0.376524971        -122.368235
2.1145e+10       0.413604184         65.5541263         2.35637464        -141.001042          0.2340698        -133.955542        0.377931003        -122.659069
2.115e+10       0.414988595         65.2573293         2.35419663        -141.224606        0.233987837        -134.159606        0.379339002        -122.949394
2.1155e+10          0.416375         64.9612078         2.35200741        -141.448203        0.233904573        -134.363703        0.380748934        -123.239214
2.116e+10       0.417763358         64.6657583         2.34980696        -141.671833        0.233820007        -134.567833        0.382160766         -123.52853
2.1165e+10       0.419153627         64.3709774         2.34759532        -141.895493        0.233734138        -134.771993        0.383574462        -123.817343
2.117e+10       0.420545766         64.0768619         2.34537249        -142.119182        0.233646965        -134.976182        0.384989989        -124.105657
2.1175e+10       0.421939734         63.7834085         2.34313849          -142.3429        0.233558488          -135.1804        0.386407312        -124.393473
2.118e+10        0.42333549         63.4906139         2.34089332        -142.566644        0.233468705        -135.384644        0.387826397        -124.680792
2.1185e+10       0.424732992         63.1984748           2.338637        -142.790413        0.233377616        -135.588913        0.389247209        -124.967618
2.119e+10       0.426132201          62.906988         2.33636954        -143.014205        0.233285221        -135.793205        0.390669714        -125.253952
2.1195e+10       0.427533074         62.6161502         2.33409097         -143.23802        0.233191518         -135.99752        0.392093877        -125.539795
2.12e+10       0.428935571         62.3259583         2.33180129        -143.461856        0.233096507        -136.201856        0.393519664         -125.82515
2.1205e+10       0.430339651         62.0364092         2.32950053         -143.68571        0.233000189         -136.40621         0.39494704        -126.110019
2.121e+10       0.431745273         61.7474996          2.3271887        -143.909583        0.232902561        -136.610583        0.396375969        -126.394403
2.1215e+10       0.433152396         61.4592265         2.32486581        -144.133472        0.232803625        -136.814972        0.397806419        -126.678304
2.122e+10       0.434560981         61.1715867         2.32253188        -144.357376         0.23270338        -137.019376        0.399238353        -126.961724
2.1225e+10       0.435970985         60.8845772         2.32018694        -144.581293        0.232601826        -137.223793        0.400671737        -127.244666
2.123e+10       0.437382369         60.5981949         2.31783101        -144.805222        0.232498962        -137.428222        0.402106537        -127.527129
2.1235e+10       0.438795092         60.3124369          2.3154641        -145.029162         0.23239479        -137.632662        0.403542717        -127.809118
2.124e+10       0.440209114            60.0273         2.31308623         -145.25311        0.232289307         -137.83711        0.404980242        -128.090632
2.1245e+10       0.441624393         59.7427815         2.31069742        -145.477066        0.232182516        -138.041566        0.406419079        -128.371674
2.125e+10       0.443040891         59.4588781         2.30829771        -145.701028        0.232074416        -138.246028        0.407859191        -128.652245
2.1255e+10       0.444458567         59.1755872          2.3058871        -145.924995        0.231965006        -138.450495        0.409300544        -128.932348
2.126e+10        0.44587738         58.8929057         2.30346563        -146.148965        0.231854289        -138.654965        0.410743103        -129.211983
2.1265e+10       0.447297291         58.6108308         2.30103331        -146.372936        0.231742263        -138.859436        0.412186833        -129.491153
2.127e+10       0.448718259         58.3293597         2.29859018        -146.596906         0.23162893        -139.063906        0.413631699        -129.769858
2.1275e+10       0.450140245         58.0484895         2.29613625        -146.820876        0.231514289        -139.268376        0.415077666        -130.048102
2.128e+10       0.451563209         57.7682174         2.29367156        -147.044842        0.231398342        -139.472842          0.4165247        -130.325884
2.1285e+10       0.452987111         57.4885406         2.29119612        -147.268804        0.231281089        -139.677304        0.417972765        -130.603207
2.129e+10       0.454411911         57.2094564         2.28870997         -147.49276         0.23116253         -139.88176        0.419421827        -130.880072
2.1295e+10        0.45583757         56.9309621         2.28621313        -147.716707        0.231042667        -140.086207         0.42087185        -131.156481
2.13e+10       0.457264049          56.653055         2.28370564        -147.940646        0.230921501        -140.290646          0.4223228        -131.432435
2.1305e+10       0.458691307         56.3757324         2.28118752        -148.164574        0.230799031        -140.495074        0.423774641        -131.707936
2.131e+10       0.460119306         56.0989917         2.27865879         -148.38849         0.23067526         -140.69949        0.425227339        -131.982984
2.1315e+10       0.461548007         55.8228302          2.2761195        -148.612392        0.230550189        -140.903892        0.426680859        -132.257583
2.132e+10        0.46297737         55.5472454         2.27356967        -148.836278        0.230423817        -141.108278        0.428135166        -132.531731
2.1325e+10       0.464407356         55.2722347         2.27100933        -149.060148        0.230296148        -141.312648        0.429590225        -132.805433
2.133e+10       0.465837927         54.9977955         2.26843851        -149.283999        0.230167181        -141.516999        0.431046002        -133.078687
2.1335e+10       0.467269044         54.7239253         2.26585725         -149.50783        0.230036918         -141.72133        0.432502461        -133.351497
2.134e+10       0.468700667         54.4506217         2.26326558         -149.73164        0.229905361         -141.92564        0.433959567        -133.623863
2.1345e+10       0.470132759         54.1778821         2.26066354        -149.955426         0.22977251        -142.129926        0.435417287        -133.895787
2.135e+10       0.471565281         53.9057042         2.25805115        -150.179188        0.229638369        -142.334188        0.436875585        -134.167269
2.1355e+10       0.472998195         53.6340855         2.25542846        -150.402923        0.229502937        -142.538423        0.438334427        -134.438311
2.136e+10       0.474431462         53.3630236          2.2527955        -150.626631        0.229366217        -142.742631        0.439793777        -134.708915
2.1365e+10       0.475865045         53.0925162          2.2501523        -150.850309         0.22922821        -142.946809        0.441253602        -134.979081
2.137e+10       0.477298904         52.8225609         2.24749891        -151.073956        0.229088919        -143.150956        0.442713867        -135.248811
2.1375e+10       0.478733003         52.5531554         2.24483535        -151.297571        0.228948345        -143.355071        0.444174537        -135.518106
2.138e+10       0.480167303         52.2842974         2.24216168        -151.521151         0.22880649        -143.559151        0.445635577        -135.786967
2.1385e+10       0.481601768         52.0159847         2.23947792        -151.744696        0.228663356        -143.763196        0.447096954        -136.055395
2.139e+10       0.483036358          51.748215         2.23678411        -151.968203        0.228518945        -143.967203        0.448558633        -136.323392
2.1395e+10       0.484471038         51.4809862          2.2340803        -152.191671         0.22837326        -144.171171         0.45002058        -136.590958
2.14e+10        0.48590577         51.2142959         2.23136653        -152.415099        0.228226302        -144.375099         0.45148276        -136.858095
2.1405e+10       0.487340516         50.9481421         2.22864283        -152.638485        0.228078073        -144.578985        0.452945139        -137.124803
2.141e+10       0.488775239         50.6825227         2.22590926        -152.861827        0.227928577        -144.782827        0.454407683        -137.391084
2.1415e+10       0.490209904         50.4174354         2.22316584        -153.085124        0.227777815        -144.986624        0.455870359        -137.656938
2.142e+10       0.491644472         50.1528782         2.22041263        -153.308374        0.227625789        -145.190374        0.457333131        -137.922368
2.1425e+10       0.493078908         49.8888491         2.21764966        -153.531576        0.227472504        -145.394076        0.458795966        -138.187373
2.143e+10       0.494513174         49.6253459         2.21487699        -153.754727         0.22731796        -145.597727         0.46025883        -138.451955
2.1435e+10       0.495947235         49.3623668         2.21209465        -153.977827        0.227162161        -145.801327         0.46172169        -138.716115
2.144e+10       0.497381055         49.0999096         2.20930268        -154.200874         0.22700511        -146.004874        0.463184511        -138.979853
2.1445e+10       0.498814597         48.8379725         2.20650115        -154.423866        0.226846808        -146.208366         0.46464726        -139.243171
2.145e+10       0.500247826         48.5765534         2.20369009        -154.646802         0.22668726        -146.411802        0.466109904         -139.50607
2.1455e+10       0.501680705         48.3156504         2.20086954        -154.869679        0.226526468        -146.615179        0.467572408         -139.76855
2.146e+10         0.5031132         48.0552617         2.19803956        -155.092497        0.226364434        -146.818497         0.46903474        -140.030612
2.1465e+10       0.504545274         47.7953853         2.19520019        -155.315254        0.226201163        -147.021754        0.470496866        -140.292258
2.147e+10       0.505976893         47.5360194         2.19235149        -155.537948        0.226036657        -147.224948        0.471958753        -140.553488
2.1475e+10       0.507408022         47.2771622         2.18949349        -155.760578         0.22587092        -147.428078        0.473420368        -140.814302
2.148e+10       0.508838624         47.0188118         2.18662626        -155.983141        0.225703953        -147.631141        0.474881678        -141.074702
2.1485e+10       0.510268667         46.7609665         2.18374983        -156.205638        0.225535762        -147.834138         0.47634265        -141.334689
2.149e+10       0.511698114         46.5036244         2.18086427        -156.428065         0.22536635        -148.037065        0.477803251        -141.594263
2.1495e+10       0.513126933         46.2467839         2.17796961        -156.650421        0.225195719        -148.239921        0.479263448        -141.853426
2.15e+10       0.514555087         45.9904433         2.17506592        -156.872705        0.225023873        -148.442705        0.480723209        -142.112177
2.1505e+10       0.515982544         45.7346007         2.17215324        -157.094915        0.224850816        -148.645415        0.482182501        -142.370517
2.151e+10       0.517409268         45.4792546         2.16923162        -157.317049        0.224676551        -148.848049        0.483641292        -142.628449
2.1515e+10       0.518835228         45.2244033         2.16630113        -157.539106        0.224501083        -149.050606        0.485099549        -142.885971
2.152e+10       0.520260387         44.9700451         2.16336181        -157.761085        0.224324414        -149.253085        0.486557241        -143.143085
2.1525e+10       0.521684715         44.7161784         2.16041371        -157.982983         0.22414655        -149.455483        0.488014335        -143.399791
2.153e+10       0.523108176         44.4628016         2.15745689          -158.2048        0.223967492          -149.6578          0.4894708        -143.656091
2.1535e+10       0.524530738         44.2099132         2.15449142        -158.426533        0.223787247        -149.860033        0.490926602        -143.911984
2.154e+10       0.525952368         43.9575115         2.15151733        -158.648181        0.223605817        -150.062181        0.492381712        -144.167472
2.1545e+10       0.527373034         43.7055951         2.14853468        -158.869742        0.223423206        -150.264242        0.493836097        -144.422556
2.155e+10       0.528792702         43.4541624         2.14554354        -159.091215        0.223239419        -150.466215        0.495289725        -144.677235
2.1555e+10        0.53021134          43.203212         2.14254396        -159.312598         0.22305446        -150.668098        0.496742566         -144.93151
2.156e+10       0.531628917         42.9527423           2.139536         -159.53389        0.222868333         -150.86989        0.498194588        -145.185382
2.1565e+10         0.5330454         42.7027519         2.13651971        -159.755089        0.222681043        -151.071589        0.499645761        -145.438852
2.157e+10       0.534460757         42.4532393         2.13349515        -159.976194        0.222492593        -151.273194        0.501096052         -145.69192
2.1575e+10       0.535874957         42.2042032         2.13046238        -160.197202        0.222302988        -151.474702        0.502545432        -145.944587
2.158e+10       0.537287969         41.9556421         2.12742147        -160.418113        0.222112233        -151.676113         0.50399387        -146.196853
2.1585e+10        0.53869976         41.7075547         2.12437246        -160.638924        0.221920332        -151.877424        0.505441335        -146.448718
2.159e+10         0.5401103         41.4599395         2.12131541        -160.859635         0.22172729        -152.078635        0.506887797        -146.700185
2.1595e+10       0.541519559         41.2127952          2.1182504        -161.080244        0.221533111        -152.279744        0.508333226        -146.951251
2.16e+10       0.542927505         40.9661205         2.11517748        -161.300748          0.2213378        -152.480748        0.509777591         -147.20192
2.1605e+10       0.544334108         40.7199141          2.1120967        -161.521148        0.221141362        -152.681648        0.511220864         -147.45219
2.161e+10       0.545739338         40.4741747         2.10900814         -161.74144        0.220943802         -152.88244        0.512663013        -147.702063
2.1615e+10       0.547143165          40.228901         2.10591185        -161.961623        0.220745124        -153.083123        0.514104009        -147.951538
2.162e+10       0.548545559         39.9840918          2.1028079        -162.181697        0.220545333        -153.283697        0.515543824        -148.200617
2.1625e+10        0.54994649         39.7397457         2.09969634        -162.401659        0.220344435        -153.484159        0.516982427        -148.449299
2.163e+10       0.551345929         39.4958616         2.09657724        -162.621508        0.220142433        -153.684508        0.518419789        -148.697585
2.1635e+10       0.552743847         39.2524383         2.09345067        -162.841242        0.219939334        -153.884742        0.519855882        -148.945477
2.164e+10       0.554140214         39.0094745         2.09031668         -163.06086        0.219735143         -154.08486        0.521290676        -149.192973
2.1645e+10       0.555535002         38.7669691         2.08717534         -163.28036        0.219529864         -154.28486        0.522724144        -149.440074
2.165e+10       0.556928182         38.5249209         2.08402672        -163.499741        0.219323503        -154.484741        0.524156256        -149.686782
2.1655e+10       0.558319726         38.2833288         2.08087088        -163.719001        0.219116065        -154.684501        0.525586984        -149.933096
2.166e+10       0.559709606         38.0421916         2.07770788        -163.938138        0.218907556        -154.884138          0.5270163        -150.179016
2.1665e+10       0.561097793         37.8015083          2.0745378        -164.157152         0.21869798        -155.083652        0.528444176        -150.424544
2.167e+10        0.56248426         37.5612776         2.07136068        -164.376041        0.218487343        -155.283041        0.529870584        -150.669678
2.1675e+10        0.56386898         37.3214986         2.06817661        -164.594803        0.218275651        -155.482303        0.531295497        -150.914421
2.168e+10       0.565251924         37.0821701         2.06498565        -164.813436        0.218062909        -155.681436        0.532718887        -151.158772
2.1685e+10       0.566633066         36.8432911         2.06178786         -165.03194        0.217849123         -155.88044        0.534140727        -151.402731
2.169e+10        0.56801238         36.6048605         2.05858331        -165.250312        0.217634297        -156.079312         0.53556099        -151.646299
2.1695e+10       0.569389838         36.3668773         2.05537207        -165.468552        0.217418439        -156.278052        0.536979648        -151.889476
2.17e+10       0.570765414         36.1293405          2.0521542        -165.686657        0.217201553        -156.476657        0.538396676        -152.132262
2.1705e+10       0.572139081         35.8922491         2.04892978        -165.904627        0.216983646        -156.675127        0.539812046        -152.374658
2.171e+10       0.573510814          35.655602         2.04569886        -166.122459        0.216764723        -156.873459        0.541225732        -152.616664
2.1715e+10       0.574880588         35.4193984         2.04246153        -166.340153        0.216544789        -157.071653        0.542637708        -152.858281
2.172e+10       0.576248375         35.1836372         2.03921784        -166.557707        0.216323851        -157.269707        0.544047948        -153.099508
2.1725e+10       0.577614152         34.9483175         2.03596786        -166.775119        0.216101915        -157.467619        0.545456427        -153.340346
2.173e+10       0.578977892         34.7134384         2.03271167        -166.992388        0.215878986        -157.665388        0.546863117        -153.580796
2.1735e+10       0.580339572         34.4789988         2.02944934        -167.209512        0.215655071        -157.863012        0.548267995        -153.820856
2.174e+10       0.581699166         34.2449979         2.02618092        -167.426491        0.215430175        -158.060491        0.549671035        -154.060529
2.1745e+10        0.58305665         34.0114349          2.0229065        -167.643322        0.215204305        -158.257822        0.551072211        -154.299813
2.175e+10          0.584412         33.7783087         2.01962614        -167.860004        0.214977467        -158.455004          0.5524715         -154.53871
2.1755e+10       0.585765192         33.5456185         2.01633992        -168.076537        0.214749666        -158.652037        0.553868876        -154.777219
2.176e+10       0.587116202         33.3133635         2.01304789        -168.292917        0.214520909        -158.848917        0.555264314        -155.015341
2.1765e+10       0.588465007         33.0815428         2.00975014        -168.509145        0.214291202        -159.045645        0.556657792        -155.253076
2.177e+10       0.589811583         32.8501555         2.00644673        -168.725218        0.214060552        -159.242218        0.558049283        -155.490424
2.1775e+10       0.591155907         32.6192007         2.00313774        -168.941136        0.213828964        -159.438636        0.559438766        -155.727386
2.178e+10       0.592497957         32.3886778         1.99982322        -169.156896        0.213596445        -159.634896        0.560826215        -155.963961
2.1785e+10        0.59383771         32.1585858         1.99650327        -169.372497        0.213363002        -159.830997        0.562211609         -156.20015
2.179e+10       0.595175143         31.9289239         1.99317794        -169.587939         0.21312864        -160.026939        0.563594922        -156.435953
2.1795e+10       0.596510236         31.6996914         1.98984731        -169.803219        0.212893366        -160.222719        0.564976133         -156.67137
2.18e+10       0.597842964         31.4708874         1.98651145        -170.018337        0.212657187        -160.418337        0.566355218        -156.906402
2.1805e+10       0.599173308         31.2425111         1.98317043        -170.233291        0.212420109        -160.613791        0.567732155        -157.141048
2.181e+10       0.600501245         31.0145619         1.97982432        -170.448079        0.212182138        -160.809079        0.569106922         -157.37531
2.1815e+10       0.601826755         30.7870389          1.9764732          -170.6627        0.211943281          -161.0042        0.570479495        -157.609186
2.182e+10       0.603149817         30.5599414         1.97311714        -170.877154        0.211703545        -161.199154        0.571849854        -157.842677
2.1825e+10       0.604470409         30.3332687          1.9697562        -171.091437        0.211462936        -161.393937        0.573217977        -158.075784
2.183e+10       0.605788511         30.1070199         1.96639047         -171.30555         0.21122146         -161.58855        0.574583841        -158.308507
2.1835e+10       0.607104104         29.8811945         1.96302001        -171.519492        0.210979125        -161.782992        0.575947425        -158.540845
2.184e+10       0.608417167         29.6557916         1.95964489        -171.733259        0.210735937        -161.977259        0.577308709        -158.772799
2.1845e+10       0.609727681         29.4308106          1.9562652        -171.946852        0.210491903        -162.171352        0.578667671        -159.004369
2.185e+10       0.611035625         29.2062507         1.95288099        -172.160269        0.210247029        -162.365269        0.580024291        -159.235556
2.1855e+10       0.612340981         28.9821113         1.94949235        -172.373509        0.210001322        -162.559009        0.581378548        -159.466359
2.186e+10       0.613643729         28.7583917         1.94609935         -172.58657        0.209754789         -162.75257        0.582730422        -159.696778
2.1865e+10       0.614943852         28.5350912         1.94270205        -172.799451        0.209507437        -162.945951        0.584079892        -159.926814
2.187e+10        0.61624133         28.3122091         1.93930054        -173.012152        0.209259272        -163.139152        0.585426939        -160.156467
2.1875e+10       0.617536144         28.0897447         1.93589488        -173.224669        0.209010302        -163.332169        0.586771543        -160.385737
2.188e+10       0.618828278         27.8676975         1.93248515        -173.437004        0.208760533        -163.525004        0.588113685        -160.614625
2.1885e+10       0.620117713         27.6460667         1.92907142        -173.649153        0.208509972        -163.717653        0.589453345        -160.843129
2.189e+10       0.621404431         27.4248518         1.92565377        -173.861116        0.208258626        -163.910116        0.590790505        -161.071251
2.1895e+10       0.622688415          27.204052         1.92223226        -174.072892        0.208006502        -164.102392        0.592125145        -161.298991
2.19e+10       0.623969648         26.9836668         1.91880697         -174.28448        0.207753607         -164.29448        0.593457247        -161.526348
2.1905e+10       0.625248112         26.7636954         1.91537798        -174.495877        0.207499947        -164.486377        0.594786793        -161.753323
2.191e+10       0.626523793         26.5441374         1.91194534        -174.707084         0.20724553        -164.678084        0.596113765        -161.979916
2.1915e+10       0.627796672         26.3249921         1.90850915        -174.918099        0.206990363        -164.869599        0.597438144        -162.206127
2.192e+10       0.629066734         26.1062589         1.90506947         -175.12892        0.206734452         -165.06092        0.598759913        -162.431957
2.1925e+10       0.630333963         25.8879371         1.90162638        -175.339546        0.206477805        -165.252046        0.600079055        -162.657405
2.193e+10       0.631598342         25.6700262         1.89817994        -175.549977        0.206220429        -165.442977        0.601395551        -162.882471
2.1935e+10       0.632859858         25.4525256         1.89473023        -175.760211        0.205962331        -165.633711        0.602709386        -163.107156
2.194e+10       0.634118493         25.2354348         1.89127733        -175.970247        0.205703517        -165.824247        0.604020542         -163.33146
2.1945e+10       0.635374234          25.018753          1.8878213        -176.180084        0.205443995        -166.014584        0.605329002        -163.555383
2.195e+10       0.636627066         24.8024798         1.88436222        -176.389721        0.205183772        -166.204721        0.606634751        -163.778924
2.1955e+10       0.637876973         24.5866146         1.88090016        -176.599156        0.204922855        -166.394656        0.607937772        -164.002085
2.196e+10       0.639123943         24.3711568         1.87743519        -176.808388        0.204661251        -166.584388        0.609238049        -164.224866
2.1965e+10       0.640367959         24.1561058         1.87396739        -177.017417        0.204398968        -166.773917        0.610535566        -164.447265
2.197e+10        0.64160901         23.9414611         1.87049684        -177.226241        0.204136011        -166.963241        0.611830308        -164.669284
2.1975e+10       0.642847081         23.7272222         1.86702359        -177.434858        0.203872389        -167.152358         0.61312226        -164.890923
2.198e+10       0.644082158         23.5133885         1.86354772        -177.643269        0.203608109        -167.341269        0.614411406        -165.112181
2.1985e+10       0.645314229         23.2999594         1.86006932        -177.851472        0.203343177        -167.529972        0.615697732         -165.33306
2.199e+10       0.646543281         23.0869344         1.85658844        -178.059466        0.203077601        -167.718466        0.616981222        -165.553558
2.1995e+10       0.647769301         22.8743129         1.85310516        -178.267249        0.202811388        -167.906749        0.618261863        -165.773677
2.2e+10       0.648992276         22.6620945         1.84961955        -178.474821        0.202544545        -168.094821        0.619539641        -165.993416
