! NEC Compound Semiconductor Devices Ltd. 
! NE321000 
! Ultra Low Noise Pseudomorphic HJ FET 
! VDS = 2 V, IDS = 10 mA 
#  GHz  S  MA  R  50 
!      f          S11                 S21                 S12                 S22 
!	 GHz 	 MAG 	 ANG 		 MAG 	 ANG 		 MAG 	 ANG	 	 MAG 	 ANG 
	 2.00 	0.9790 	 -15.88 	4.7000 	 161.37 	0.0300 	   0.10 	0.6310 	 -11.44
	 3.00 	0.9520 	 -24.04 	4.6580 	 152.38 	0.0450 	  75.46 	0.6180 	 -16.89
	 4.00 	0.9180 	 -32.49 	4.6020 	 143.31 	0.0590 	  70.71 	0.5980 	 -22.57
	 5.00 	0.8760 	 -41.18 	4.5360 	 134.13 	0.0720 	  65.92 	0.5740 	 -28.45
	 6.00 	0.8060 	 -53.05 	4.5570 	 123.19 	0.0870 	  59.37 	0.5170 	 -37.47
	 7.00 	0.7560 	 -62.14 	4.4000 	 114.52 	0.0970 	  55.24 	0.4920 	 -42.71
	 8.00 	0.7040 	 -71.41 	4.2410 	 105.89 	0.1070 	  51.14 	0.4630 	 -47.93
	 9.00 	0.6520 	 -81.35 	4.0860 	  97.18 	0.1160 	  47.15 	0.4280 	 -53.46
	10.00 	0.5990 	 -91.60 	3.9250 	  88.59 	0.1250 	  43.28 	0.3900 	 -59.62
	11.00 	0.5470 	-102.52 	3.7570 	  80.01 	0.1320 	  39.42 	0.3510 	 -66.37
	12.00 	0.5000 	-113.97 	3.5910 	  71.67 	0.1400 	  36.01 	0.3130 	 -74.06
	13.00 	0.4590 	-126.08 	3.4180 	  63.45 	0.1460 	  32.77 	0.2790 	 -83.24
	14.00 	0.4250 	-138.72 	3.2410 	  55.38 	0.1530 	  29.59 	0.2470 	 -93.60
	15.00 	0.3980 	-151.46 	3.0690 	  47.70 	0.1600 	  26.77 	0.2210 	-105.60
	16.00 	0.3800 	-164.21 	2.9040 	  40.36 	0.1660 	  24.33 	0.2060 	-118.23
	17.00 	0.3700 	-176.46 	2.7500 	  33.25 	0.1740 	  22.07 	0.1950 	-131.11
	18.00 	0.3650 	 171.42 	2.6060 	  26.43 	0.1830 	  19.95 	0.1880 	-144.12
	19.00 	0.3650 	 159.53 	2.4760 	  19.76 	0.1940 	  17.75 	0.1870 	-156.14
	20.00 	0.3730 	 147.72 	2.3580 	  13.28 	0.2060 	  15.55 	0.1830 	-168.03
	21.00 	0.3880 	 136.67 	2.2520 	   6.48 	0.2200 	  12.96 	0.1820 	 178.67
	22.00 	0.4120 	 126.56 	2.1460 	  -0.14 	0.2350 	  10.24 	0.1870 	 163.83
	23.00 	0.4440 	 117.17 	2.0420 	  -6.88 	0.2500 	   7.23 	0.1980 	 146.97
	24.00 	0.4850 	 108.32 	1.9360 	 -13.88 	0.2680 	   3.56 	0.2260 	 130.10
	25.00 	0.5320 	 100.27 	1.8190 	 -20.82 	0.2840 	  -0.73 	0.2680 	 114.53
	26.00 	0.5840 	  93.50 	1.6970 	 -27.48 	0.2970 	  -5.09 	0.3200 	 101.53
	27.00 	0.6360 	  87.38 	1.5840 	 -33.95 	0.3090 	  -9.24 	0.3840 	  91.41
	28.00 	0.6810 	  81.46 	1.4710 	 -40.30 	0.3220 	 -13.52 	0.4490 	  83.86
	29.00 	0.7230 	  76.25 	1.3610 	 -46.28 	0.3320 	 -17.90 	0.5140 	  77.47
	30.00 	0.7520 	  71.46 	1.2530 	 -51.33 	0.3400 	 -21.67 	0.5710 	  72.94
	31.00 	0.7710 	  67.12 	1.1580 	 -55.59 	0.3490 	 -24.79 	0.6180 	  69.72
	32.00 	0.7710 	  62.95 	1.0740 	 -58.96 	0.3610 	 -27.19 	0.6540 	  67.81
	33.00 	0.7600 	  59.66 	1.0030 	 -61.95 	0.3820 	 -29.77 	0.6720 	  65.90
	34.00 	0.7490 	  57.15 	0.9530 	 -63.99 	0.4080 	 -33.01 	0.6770 	  64.49
	35.00 	0.7220 	  56.15 	0.9090 	 -66.52 	0.4280 	 -37.73 	0.6850 	  64.23
	36.00 	0.7190 	  53.23 	0.8820 	 -68.19 	0.4530 	 -40.45 	0.6950 	  61.49
	37.00 	0.6860 	  49.28 	0.8700 	 -71.76 	0.4950 	 -46.46 	0.6720 	  57.54
	38.00 	0.6300 	  48.81 	0.8250 	 -77.56 	0.5040 	 -57.77 	0.6340 	  56.85
	39.00 	0.6890 	  49.24 	0.7340 	 -79.13 	0.4410 	 -60.27 	0.6830 	  54.33
	40.00 	0.7190 	  41.34 	0.7120 	 -79.03 	0.4660 	 -59.22 	0.7030 	  43.64
	41.00 	0.7290 	  35.32 	0.6940 	 -80.94 	0.4980 	 -62.84 	0.7060 	  32.69
	42.00 	0.7430 	  30.50 	0.6860 	 -83.24 	0.5340 	 -67.39 	0.7100 	  21.48
! NOISE PARAMETERS 
! NOTE: NOISE PARAMETERS INCLUDE BOND WIRES 
	 2.00 	 0.2100 	 0.9400 	   3.70 	 0.3100 
	 4.00 	 0.2200 	 0.8700 	   8.20 	 0.3100 
	 6.00 	 0.2400 	 0.8200 	  13.30 	 0.3200 
	 8.00 	 0.2600 	 0.7700 	  18.80 	 0.3200 
	10.00 	 0.2800 	 0.7300 	  24.80 	 0.3200 
	12.00 	 0.3100 	 0.6900 	  31.40 	 0.3100 
	14.00 	 0.3800 	 0.6700 	  38.40 	 0.3100 
	16.00 	 0.4500 	 0.6400 	  45.90 	 0.3000 
	18.00 	 0.5200 	 0.6300 	  53.90 	 0.2900 
	20.00 	 0.5900 	 0.6200 	  62.40 	 0.2800 
	22.00 	 0.6600 	 0.6100 	  71.40 	 0.2700 
	24.00 	 0.7200 	 0.6200 	  80.80 	 0.2500 
	26.00 	 0.7900 	 0.6300 	  90.80 	 0.2300 
